23
Lattice="30.0 0.0 0.0 0.0 30.0 0.0 0.0 0.0 30.0" Properties=species:S:1:pos:R:3:forces:R:3 dimer_id=1386 label=CC chargeA=-1 energyA=-7291.51879223012 chargeB=1 energyB=-6671.61300155234 indexB=10 distance=5.594847786946981 distance_initial=5.594847786946981 energy=-13964.4309421838 pbc="T T T"
C        0.29438590       0.85350649       0.52570587      -0.19339003       0.12162919       0.04294894
C       -0.54839159       1.87963448      -0.16821228       0.06615773       0.05947314       0.00475243
C        0.12695244      -0.57655720       0.00590970      -0.38751638      -0.43155135      -0.57100122
O       -0.66694580      -0.73455486      -0.91122808       0.39713163       0.28461551       0.50852228
O        0.81815788      -1.40958240       0.57753531       0.26094770       0.26144268       0.27276337
H        1.34485917       1.09788636       0.44510201       0.17687413       0.05119117      -0.17767865
H        0.08140524       0.83133268       1.58581524      -0.09559983      -0.01982620       0.05827617
H       -1.59428892       1.63352123      -0.07958060       0.06783100      -0.01993869       0.01421275
H       -0.32731410       1.90061833      -1.22320180      -0.00572186      -0.02233831       0.04190939
H       -0.39077786       2.87128850       0.23804944      -0.02685691       0.01569442      -0.00992662
C        3.69099301       4.88101918       4.14082405      -0.09603901      -0.14485299      -0.00863501
C        3.11093899       2.82380127       3.01755494      -0.43564387      -0.87184236      -0.24644369
N        3.03023470       3.61193368       4.05073701       0.06977200       0.38569591       0.33422761
N        3.82639370       3.17654119       1.98255944       0.18657991       0.16998431      -0.03705912
N        2.47837738       1.67712948       3.00901379       0.48111560       0.54908326       0.23246949
H        2.47895004       3.31474005       4.81898896       0.00843843      -0.00852172      -0.07260840
H        4.31236051       4.03912305       1.96641528      -0.06104536      -0.06381954      -0.00415773
H        3.90238298       2.59370243       1.18511026      -0.10323836      -0.06918617      -0.02682853
H        1.92928926       1.38530366       3.77994963      -0.05819541      -0.03305255      -0.09335323
H        2.52850944       1.06629089       2.23113772      -0.27521144      -0.24504502      -0.24622260
H        3.34499593       5.55389436       3.37387329       0.01276364       0.01173005      -0.00826916
H        4.76071428       4.76630982       4.08390203       0.01275578       0.01525994      -0.01149588
H        3.45512653       5.31549710       5.09289394      -0.00190909       0.00417532       0.00359741
23
Lattice="30.0 0.0 0.0 0.0 30.0 0.0 0.0 0.0 30.0" Properties=species:S:1:pos:R:3:forces:R:3 dimer_id=1386 label=CC chargeA=-1 energyA=-7291.51879223012 chargeB=1 energyB=-6671.61300155234 indexB=10 distance=6.074075570781487 distance_initial=5.594847786946981 energy=-13964.2159992868 pbc="T T T"
C        0.29438590       0.85350649       0.52570587      -0.13003707       0.15945640       0.05598868
C       -0.54839159       1.87963448      -0.16821228       0.04276529       0.03951751       0.00147178
C        0.12695244      -0.57655720       0.00590970      -0.29914915      -0.41322557      -0.45874052
O       -0.66694580      -0.73455486      -0.91122808       0.33550470       0.26172659       0.43092294
O        0.81815788      -1.40958240       0.57753531       0.19850747       0.21953835       0.21156614
H        1.34485917       1.09788636       0.44510201       0.17748079       0.02955877      -0.11594184
H        0.08140524       0.83133268       1.58581524      -0.08101662      -0.02702319       0.07409969
H       -1.59428892       1.63352123      -0.07958060       0.05626163      -0.01158194       0.00926871
H       -0.32731410       1.90061833      -1.22320180      -0.00584977      -0.01732686       0.03528319
H       -0.39077786       2.87128850       0.23804944      -0.02576072       0.02167161      -0.00847484
C        3.96767530       5.15770147       4.41750634      -0.08001679      -0.12187011      -0.00804384
C        3.38762128       3.10048356       3.29423723      -0.34682888      -0.69681772      -0.23305556
N        3.30691699       3.88861597       4.32741930       0.06183302       0.30941760       0.27749108
N        4.10307599       3.45322348       2.25924173       0.15157754       0.13840181      -0.00792917
N        2.75505967       1.95381177       3.28569608       0.34526781       0.43092392       0.13828449
H        2.75563233       3.59142234       5.09567125       0.00283966      -0.00696828      -0.06055228
H        4.58904280       4.31580534       2.24309757      -0.05284069      -0.05477144      -0.00445933
H        4.17906527       2.87038472       1.46179255      -0.08772416      -0.05861539      -0.03224638
H        2.20597155       1.66198595       4.05663192      -0.06059411      -0.03113190      -0.07865792
H        2.80519173       1.34297318       2.50782001      -0.21988585      -0.19395295      -0.21177904
H        3.62167822       5.83057665       3.65055558       0.00995084       0.00848527      -0.00727528
H        5.03739657       5.04299211       4.36058432       0.01028977       0.01220902      -0.00998654
H        3.73180882       5.59217939       5.36957623      -0.00257469       0.00237852       0.00276584
23
Lattice="30.0 0.0 0.0 0.0 30.0 0.0 0.0 0.0 30.0" Properties=species:S:1:pos:R:3:forces:R:3 dimer_id=1386 label=CC chargeA=-1 energyA=-7291.51879223012 chargeB=1 energyB=-6671.61300155234 indexB=10 distance=6.594351694358286 distance_initial=5.594847786946981 energy=-13964.0057190884 pbc="T T T"
C        0.29438590       0.85350649       0.52570587      -0.09190473       0.15746997       0.04436956
C       -0.54839159       1.87963448      -0.16821228       0.02638234       0.01850235      -0.00245848
C        0.12695244      -0.57655720       0.00590970      -0.24609460      -0.36297221      -0.37722743
O       -0.66694580      -0.73455486      -0.91122808       0.28270401       0.22800132       0.36138871
O        0.81815788      -1.40958240       0.57753531       0.15814956       0.18060014       0.16973774
H        1.34485917       1.09788636       0.44510201       0.14123076       0.01448807      -0.08650064
H        0.08140524       0.83133268       1.58581524      -0.06894047      -0.02861803       0.06469475
H       -1.59428892       1.63352123      -0.07958060       0.04597527      -0.00522414       0.00543918
H       -0.32731410       1.90061833      -1.22320180      -0.00612013      -0.01265203       0.02911086
H       -0.39077786       2.87128850       0.23804944      -0.02336940       0.02640583      -0.00638468
C        4.26805686       5.45808303       4.71788790      -0.06734843      -0.10233576      -0.00771724
C        3.68800284       3.40086512       3.59461879      -0.27610829      -0.56715649      -0.20980207
N        3.60729855       4.18899753       4.62780086       0.05274574       0.25228617       0.23191645
N        4.40345755       3.75360504       2.55962329       0.12234224       0.11195128       0.00771447
N        3.05544123       2.25419333       3.58607764       0.27369632       0.35128855       0.10429806
H        3.05601389       3.89180390       5.39605281      -0.00020591      -0.00579065      -0.05035313
H        4.88942436       4.61618690       2.54347913      -0.04559107      -0.04644464      -0.00506953
H        4.47944683       3.17076628       1.76217411      -0.07257107      -0.04901532      -0.03354069
H        2.50635311       1.96236751       4.35701348      -0.05571373      -0.02819269      -0.06341271
H        3.10557329       1.64335474       2.80820157      -0.16252379      -0.14976779      -0.16332978
H        3.92205978       6.13095821       3.95093714       0.00788723       0.00640519      -0.00628072
H        5.33777813       5.34337367       4.66096588       0.00835552       0.00960930      -0.00871529
H        4.03219038       5.89256095       5.66995779      -0.00297737       0.00116158       0.00212260
23
Lattice="30.0 0.0 0.0 0.0 30.0 0.0 0.0 0.0 30.0" Properties=species:S:1:pos:R:3:forces:R:3 dimer_id=1386 label=CC chargeA=-1 energyA=-7291.51879223012 chargeB=1 energyB=-6671.61300155234 indexB=10 distance=7.159192186175727 distance_initial=5.594847786946981 energy=-13963.8214660282 pbc="T T T"
C        0.29438590       0.85350649       0.52570587      -0.06453565       0.13778496       0.03240373
C       -0.54839159       1.87963448      -0.16821228       0.01613812       0.00265018      -0.00500424
C        0.12695244      -0.57655720       0.00590970      -0.20871919      -0.30395069      -0.31336243
O       -0.66694580      -0.73455486      -0.91122808       0.23726430       0.19284300       0.30096939
O        0.81815788      -1.40958240       0.57753531       0.12952258       0.14654062       0.13897717
H        1.34485917       1.09788636       0.44510201       0.10555169       0.00563924      -0.06679099
H        0.08140524       0.83133268       1.58581524      -0.05645217      -0.02654162       0.05202825
H       -1.59428892       1.63352123      -0.07958060       0.03742991      -0.00119025       0.00278550
H       -0.32731410       1.90061833      -1.22320180      -0.00619903      -0.00902957       0.02384109
H       -0.39077786       2.87128850       0.23804944      -0.02029358       0.02885713      -0.00429916
C        4.59416767       5.78419384       5.04399871      -0.05681658      -0.08589422      -0.00729670
C        4.01411365       3.72697593       3.92072960      -0.22093842      -0.46526366      -0.18458980
N        3.93340936       4.51510834       4.95391167       0.04454212       0.20764267       0.19450989
N        4.72956836       4.07971585       2.88573410       0.09874375       0.09055115       0.01562114
N        3.38155204       2.58030414       3.91218845       0.22451016       0.29026781       0.08620912
H        3.38212470       4.21791471       5.72216362      -0.00188630      -0.00483970      -0.04188624
H        5.21553517       4.94229771       2.86958994      -0.03918457      -0.03921571      -0.00546141
H        4.80555764       3.49687709       2.08828492      -0.05926953      -0.04088542      -0.03244216
H        2.83246392       2.28847832       4.68312429      -0.04882289      -0.02493066      -0.05046536
H        3.43168410       1.96946555       3.13431238      -0.12048400      -0.11383167      -0.12437495
H        4.24817059       6.45706902       4.27704795       0.00626737       0.00494559      -0.00540195
H        5.66388894       5.66948448       4.98707669       0.00682311       0.00751449      -0.00761473
H        4.35830119       6.21867176       5.99606860      -0.00319120       0.00033632       0.00164484
23
Lattice="30.0 0.0 0.0 0.0 30.0 0.0 0.0 0.0 30.0" Properties=species:S:1:pos:R:3:forces:R:3 dimer_id=1386 label=CC chargeA=-1 energyA=-7291.51879223012 chargeB=1 energyB=-6671.61300155234 indexB=10 distance=7.772414197538558 distance_initial=5.594847786946981 energy=-13963.6626689459 pbc="T T T"
C        0.29438590       0.85350649       0.52570587      -0.04489412       0.11437172       0.02411073
C       -0.54839159       1.87963448      -0.16821228       0.00988728      -0.00737449      -0.00617316
C        0.12695244      -0.57655720       0.00590970      -0.17833330      -0.24891079      -0.26105687
O       -0.66694580      -0.73455486      -0.91122808       0.19847433       0.16082002       0.24971025
O        0.81815788      -1.40958240       0.57753531       0.10741310       0.11820713       0.11489542
H        1.34485917       1.09788636       0.44510201       0.07853765       0.00131520      -0.05136643
H        0.08140524       0.83133268       1.58581524      -0.04510664      -0.02285065       0.04106983
H       -1.59428892       1.63352123      -0.07958060       0.03044729       0.00103635       0.00104112
H       -0.32731410       1.90061833      -1.22320180      -0.00600435      -0.00644886       0.01944466
H       -0.39077786       2.87128850       0.23804944      -0.01701305       0.02912422      -0.00249827
C        4.94821156       6.13823774       5.39804260      -0.04793440      -0.07204591      -0.00680578
C        4.36815754       4.08101983       4.27477349      -0.17791277      -0.38219262      -0.16047627
N        4.28745325       4.86915224       5.30795556       0.03769552       0.17164219       0.16318879
N        5.08361225       4.43375975       3.23977799       0.07991861       0.07352935       0.01920711
N        3.73559593       2.93434804       4.26623234       0.18591650       0.23970695       0.07266414
H        3.73616859       4.57195861       6.07620751      -0.00285766      -0.00407441      -0.03485174
H        5.56957906       5.29634161       3.22363383      -0.03354776      -0.03303671      -0.00558239
H        5.15960153       3.85092099       2.44232881      -0.04813856      -0.03406613      -0.03008529
H        3.18650781       2.64252222       5.03716818      -0.04204824      -0.02166888      -0.04011036
H        3.78572799       2.32350945       3.48835627      -0.09181757      -0.08662376      -0.09633493
H        4.60221448       6.81111292       4.63109184       0.00497766       0.00388679      -0.00464168
H        6.01793283       6.02352838       5.34112058       0.00559727       0.00586589      -0.00664030
H        4.71234508       6.57271566       6.35011249      -0.00325679      -0.00021261       0.00129142
23
Lattice="30.0 0.0 0.0 0.0 30.0 0.0 0.0 0.0 30.0" Properties=species:S:1:pos:R:3:forces:R:3 dimer_id=1386 label=CC chargeA=-1 energyA=-7291.51879223012 chargeB=1 energyB=-6671.61300155234 indexB=10 distance=8.438161867849981 distance_initial=5.594847786946981 energy=-13963.5246695864 pbc="T T T"
C        0.29438590       0.85350649       0.52570587      -0.03139710       0.09299205       0.01851014
C       -0.54839159       1.87963448      -0.16821228       0.00589496      -0.01272780      -0.00644689
C        0.12695244      -0.57655720       0.00590970      -0.15185637      -0.20221755      -0.21729937
O       -0.66694580      -0.73455486      -0.91122808       0.16555415       0.13332657       0.20674407
O        0.81815788      -1.40958240       0.57753531       0.08939385       0.09519871       0.09529760
H        1.34485917       1.09788636       0.44510201       0.05922061      -0.00044833      -0.03927857
H        0.08140524       0.83133268       1.58581524      -0.03560074      -0.01888294       0.03230441
H       -1.59428892       1.63352123      -0.07958060       0.02476861       0.00206803      -0.00004747
H       -0.32731410       1.90061833      -1.22320180      -0.00562831      -0.00467173       0.01580194
H       -0.39077786       2.87128850       0.23804944      -0.01385836       0.02767410      -0.00106590
C        5.33258116       6.52260733       5.78241220      -0.04047824      -0.06033199      -0.00631736
C        4.75252714       4.46538942       4.65914309      -0.14387017      -0.31347672      -0.13839758
N        4.67182285       5.25352183       5.69232516       0.03200175       0.14210904       0.13670795
N        5.46798185       4.81812934       3.62414759       0.06486279       0.05983625       0.02028375
N        4.11996553       3.31871763       4.65060194       0.15388699       0.19723834       0.06120604
H        4.12053819       4.95632820       6.46057711      -0.00336993      -0.00345646      -0.02899148
H        5.95394866       5.68071120       3.60800343      -0.02858524      -0.02776232      -0.00548900
H        5.54397113       4.23529058       2.82669841      -0.03905973      -0.02823362      -0.02711124
H        3.57087741       3.02689181       5.42153778      -0.03593684      -0.01853291      -0.03185591
H        4.17009759       2.70787904       3.87272587      -0.07125926      -0.06679470      -0.07585101
H        4.98658408       7.19548251       5.01546144       0.00393206       0.00309727      -0.00397545
H        6.40230243       6.40789797       5.72549018       0.00459975       0.00455676      -0.00575841
H        5.09671468       6.95708525       6.73448209      -0.00321525      -0.00056005       0.00102976
23
Lattice="30.0 0.0 0.0 0.0 30.0 0.0 0.0 0.0 30.0" Properties=species:S:1:pos:R:3:forces:R:3 dimer_id=1386 label=CC chargeA=-1 energyA=-7291.51879223012 chargeB=1 energyB=-6671.61300155234 indexB=10 distance=9.160934268364691 distance_initial=5.594847786946981 energy=-13963.4035276588 pbc="T T T"
C        0.29438590       0.85350649       0.52570587      -0.02208052       0.07522016       0.01461089
C       -0.54839159       1.87963448      -0.16821228       0.00326911      -0.01477634      -0.00611269
C        0.12695244      -0.57655720       0.00590970      -0.12856827      -0.16388494      -0.18055873
O       -0.66694580      -0.73455486      -0.91122808       0.13778630       0.11019281       0.17094313
O        0.81815788      -1.40958240       0.57753531       0.07438195       0.07654157       0.07906143
H        1.34485917       1.09788636       0.44510201       0.04523635      -0.00105996      -0.03002979
H        0.08140524       0.83133268       1.58581524      -0.02794949      -0.01525754       0.02548588
H       -1.59428892       1.63352123      -0.07958060       0.02012114       0.00238360      -0.00071229
H       -0.32731410       1.90061833      -1.22320180      -0.00514751      -0.00346458       0.01280293
H       -0.39077786       2.87128850       0.23804944      -0.01103167       0.02509753      -0.00004538
C        5.74987400       6.93990017       6.19970504      -0.03413270      -0.05029022      -0.00585796
C        5.16981998       4.88268226       5.07643593      -0.11643465      -0.25648473      -0.11843558
N        5.08911569       5.67081467       6.10961800       0.02714106       0.11749151       0.11420334
N        5.88527469       5.23542218       4.04144043       0.05264748       0.04863545       0.01990459
N        4.53725837       3.73601047       5.06789478       0.12655960       0.16174656       0.05095644
H        4.53783103       5.37362104       6.87786995      -0.00354538      -0.00294680      -0.02408680
H        6.37124150       6.09800404       4.02529627      -0.02422240      -0.02320384      -0.00523399
H        5.96126397       4.65258342       3.24399125      -0.03169382      -0.02322859      -0.02389689
H        3.98817025       3.44418465       5.83883062      -0.03046303      -0.01565759      -0.02528235
H        4.58739043       3.12517188       4.29001871      -0.05562180      -0.05227368      -0.06021407
H        5.40387692       7.61277535       5.43275428       0.00307408       0.00249243      -0.00338605
H        6.81959527       6.82519081       6.14278302       0.00377780       0.00349032      -0.00495933
H        5.51400752       7.37437809       7.15177493      -0.00310362      -0.00076313       0.00084328
23
Lattice="30.0 0.0 0.0 0.0 30.0 0.0 0.0 0.0 30.0" Properties=species:S:1:pos:R:3:forces:R:3 dimer_id=1386 label=CC chargeA=-1 energyA=-7291.51879223012 chargeB=1 energyB=-6671.61300155234 indexB=10 distance=9.945615897830086 distance_initial=5.594847786946981 energy=-13963.2965420258 pbc="T T T"
C        0.29438590       0.85350649       0.52570587      -0.01561782       0.06073064       0.01164631
C       -0.54839159       1.87963448      -0.16821228       0.00155240      -0.01481111      -0.00541786
C        0.12695244      -0.57655720       0.00590970      -0.10814163      -0.13257026      -0.14957883
O       -0.66694580      -0.73455486      -0.91122808       0.11431827       0.09073372       0.14102338
O        0.81815788      -1.40958240       0.57753531       0.06173566       0.06134245       0.06544168
H        1.34485917       1.09788636       0.44510201       0.03488047      -0.00116612      -0.02293250
H        0.08140524       0.83133268       1.58581524      -0.02187444      -0.01217544       0.02016327
H       -1.59428892       1.63352123      -0.07958060       0.01628574       0.00230311      -0.00108428
H       -0.32731410       1.90061833      -1.22320180      -0.00460818      -0.00262169       0.01033243
H       -0.39077786       2.87128850       0.23804944      -0.00863625       0.02198293       0.00059742
C        6.20291015       7.39293632       6.65274119      -0.02862923      -0.04159464      -0.00541204
C        5.62285613       5.33571841       5.52947208      -0.09410013      -0.20925788      -0.10046003
N        5.54215184       6.12385082       6.56265415       0.02294298       0.09672433       0.09491512
N        6.33831084       5.68845833       4.49447658       0.04260248       0.03940833       0.01872068
N        4.99029452       4.18904662       5.52093093       0.10341041       0.13227311       0.04183941
H        4.99086718       5.82665719       7.33090610      -0.00350085      -0.00251679      -0.01992890
H        6.82427765       6.55104019       4.47833242      -0.02039547      -0.01925070      -0.00487256
H        6.41430012       5.10561957       3.69702740      -0.02563847      -0.01898930      -0.02068573
H        4.44120640       3.89722080       6.29186677      -0.02556751      -0.01312226      -0.02005685
H        5.04042658       3.57820803       4.74305486      -0.04353800      -0.04118582      -0.04787373
H        5.85691307       8.06581150       5.88579043       0.00237046       0.00202339      -0.00285840
H        7.27263142       7.27822696       6.59581917       0.00309542       0.00261265      -0.00423253
H        5.96704367       7.82741424       7.60481108      -0.00294634      -0.00087265       0.00071454
23
Lattice="30.0 0.0 0.0 0.0 30.0 0.0 0.0 0.0 30.0" Properties=species:S:1:pos:R:3:forces:R:3 dimer_id=1386 label=CC chargeA=-1 energyA=-7291.51879223012 chargeB=1 energyB=-6671.61300155234 indexB=10 distance=10.797509568357604 distance_initial=5.594847786946981 energy=-13963.2019509334 pbc="T T T"
C        0.29438590       0.85350649       0.52570587      -0.01105747       0.04892363       0.00928969
C       -0.54839159       1.87963448      -0.16821228       0.00044482      -0.01372083      -0.00452979
C        0.12695244      -0.57655720       0.00590970      -0.09028370      -0.10687656      -0.12330406
O       -0.66694580      -0.73455486      -0.91122808       0.09442657       0.07431677       0.11587363
O        0.81815788      -1.40958240       0.57753531       0.05102366       0.04889101       0.05393745
H        1.34485917       1.09788636       0.44510201       0.02702945      -0.00107413      -0.01749901
H        0.08140524       0.83133268       1.58581524      -0.01709692      -0.00963937       0.01594203
H       -1.59428892       1.63352123      -0.07958060       0.01311373       0.00202927      -0.00125649
H       -0.32731410       1.90061833      -1.22320180      -0.00405076      -0.00201898       0.00829426
H       -0.39077786       2.87128850       0.23804944      -0.00667707       0.01873304       0.00093963
C        6.69475119       7.88477736       7.14458223      -0.02386268      -0.03406550      -0.00498350
C        6.11469717       5.82755945       6.02131312      -0.07580090      -0.16992224      -0.08446901
N        6.03399288       6.61569186       7.05449519       0.01932933       0.07913013       0.07833769
N        6.83015188       6.18029937       4.98631762       0.03428455       0.03175699       0.01711699
N        5.48213556       4.68088766       6.01277197       0.08411674       0.10768141       0.03398437
H        5.48270822       6.31849823       7.82274714      -0.00333048      -0.00214248      -0.01638038
H        7.31611869       7.04288123       4.97017346      -0.01704976      -0.01583519      -0.00444688
H        6.90614116       5.59746061       4.18886844      -0.02063335      -0.01541079      -0.01761472
H        4.93304744       4.38906184       6.78370781      -0.02127205      -0.01092878      -0.01587502
H        5.53226762       4.07004907       5.23489590      -0.03419211      -0.03245885      -0.03800649
H        6.34875411       8.55765254       6.37763147       0.00178323       0.00165548      -0.00239338
H        7.76447246       7.77006800       7.08766021       0.00252072       0.00189041      -0.00358003
H        6.45888471       8.31925528       8.09665212      -0.00276554      -0.00091445       0.00062302
23
Lattice="30.0 0.0 0.0 0.0 30.0 0.0 0.0 0.0 30.0" Properties=species:S:1:pos:R:3:forces:R:3 dimer_id=1386 label=CC chargeA=-1 energyA=-7291.51879223012 chargeB=1 energyB=-6671.61300155234 indexB=10 distance=11.722372374344488 distance_initial=5.594847786946981 energy=-13963.1185289927 pbc="T T T"
C        0.29438590       0.85350649       0.52570587      -0.00778890       0.03919396       0.00734731
C       -0.54839159       1.87963448      -0.16821228      -0.00025278      -0.01209173      -0.00358071
C        0.12695244      -0.57655720       0.00590970      -0.07480515      -0.08556364      -0.10099366
O       -0.66694580      -0.73455486      -0.91122808       0.07753761       0.06039750       0.09465510
O        0.81815788      -1.40958240       0.57753531       0.04196401       0.03859825       0.04421161
H        1.34485917       1.09788636       0.44510201       0.02093905      -0.00090656      -0.01331476
H        0.08140524       0.83133268       1.58581524      -0.01332984      -0.00755979       0.01254790
H       -1.59428892       1.63352123      -0.07958060       0.01049561       0.00168172      -0.00129197
H       -0.32731410       1.90061833      -1.22320180      -0.00350564      -0.00157467       0.00662271
H       -0.39077786       2.87128850       0.23804944      -0.00510009       0.01560008       0.00107325
C        7.22872098       8.41874715       7.67855202      -0.01973657      -0.02756662      -0.00457980
C        6.64866696       6.36152924       6.55528291      -0.06070118      -0.13700707      -0.07036562
N        6.56796267       7.14966165       7.58846498       0.01622074       0.06422088       0.06411436
N        7.36412167       6.71426916       5.52028741       0.02739001       0.02540611       0.01532595
N        6.01610535       5.21485745       6.54674176       0.06800844       0.08710253       0.02731814
H        6.01667801       6.85246802       8.35671693      -0.00308781      -0.00182024      -0.01335176
H        7.85008848       7.57685102       5.50414325      -0.01413194      -0.01289488      -0.00398915
H        7.44011095       6.13143040       4.72283823      -0.01648393      -0.01240318      -0.01476720
H        5.46701723       4.92303163       7.31767760      -0.01753119      -0.00903993      -0.01250573
H        6.06623741       4.60401886       5.76886569      -0.02685208      -0.02551815      -0.03005509
H        6.88272390       9.09162233       6.91160126       0.00129138       0.00136074      -0.00198653
H        8.29844225       8.30403779       7.62163000       0.00203337       0.00129716      -0.00299694
H        6.99285450       8.85322507       8.63062191      -0.00257311      -0.00091246       0.00056258
23
Lattice="30.0 0.0 0.0 0.0 30.0 0.0 0.0 0.0 30.0" Properties=species:S:1:pos:R:3:forces:R:3 dimer_id=1386 label=CC chargeA=-1 energyA=-7291.51879223012 chargeB=1 energyB=-6671.61300155234 indexB=10 distance=12.726454478864875 distance_initial=5.594847786946981 energy=-13963.0454196794 pbc="T T T"
C        0.29438590       0.85350649       0.52570587      -0.00542684       0.03112983       0.00568893
C       -0.54839159       1.87963448      -0.16821228      -0.00066967      -0.01028552      -0.00264270
C        0.12695244      -0.57655720       0.00590970      -0.06146355      -0.06782321      -0.08205091
O       -0.66694580      -0.73455486      -0.91122808       0.06320859       0.04859083       0.07674103
O        0.81815788      -1.40958240       0.57753531       0.03428619       0.03006001       0.03596755
H        1.34485917       1.09788636       0.44510201       0.01614927      -0.00071784      -0.01006431
H        0.08140524       0.83133268       1.58581524      -0.01034405      -0.00585916       0.00981261
H       -1.59428892       1.63352123      -0.07958060       0.00833150       0.00132771      -0.00123984
H       -0.32731410       1.90061833      -1.22320180      -0.00298947      -0.00123187       0.00524893
H       -0.39077786       2.87128850       0.23804944      -0.00385091       0.01272781       0.00106792
C        7.80842805       8.99845423       8.25825909      -0.01617637      -0.02197685      -0.00420156
C        7.22837403       6.94123632       7.13498998      -0.04819715      -0.10943731      -0.05801504
N        7.14766974       7.72936873       8.16817205       0.01355066       0.05160298       0.05193878
N        7.94382874       7.29397624       6.09999448       0.02166484       0.02013174       0.01349967
N        6.59581242       5.79456453       7.12644883       0.05455709       0.06988301       0.02170586
H        6.59638508       7.43217510       8.93642400      -0.00280849      -0.00154415      -0.01077179
H        8.42979555       8.15655810       6.08385032      -0.01159920      -0.01037178      -0.00352464
H        8.01981802       6.71113748       5.30254530      -0.01304155      -0.00988372      -0.01218860
H        6.04672430       5.50273871       7.89738467      -0.01429359      -0.00741785      -0.00978106
H        6.64594448       5.18372594       6.34857276      -0.02101165      -0.01995504      -0.02360745
H        7.46243097       9.67132941       7.49130833       0.00087844       0.00112133      -0.00163117
H        8.87814932       8.88374487       8.20133707       0.00162215       0.00081036      -0.00247665
H        7.57256157       9.43293215       9.21032898      -0.00237624      -0.00088131       0.00052444
23
Lattice="30.0 0.0 0.0 0.0 30.0 0.0 0.0 0.0 30.0" Properties=species:S:1:pos:R:3:forces:R:3 dimer_id=1386 label=CC chargeA=-1 energyA=-7291.51879223012 chargeB=1 energyB=-6671.61300155234 indexB=10 distance=13.81654143344454 distance_initial=5.594847786946981 energy=-13962.9818934455 pbc="T T T"
C        0.29438590       0.85350649       0.52570587      -0.00370868       0.02445055       0.00426861
C       -0.54839159       1.87963448      -0.16821228      -0.00089782      -0.00850269      -0.00176986
C        0.12695244      -0.57655720       0.00590970      -0.05003228      -0.05306431      -0.06600847
O       -0.66694580      -0.73455486      -0.91122808       0.05108092       0.03860441       0.06164477
O        0.81815788      -1.40958240       0.57753531       0.02780067       0.02299342       0.02900300
H        1.34485917       1.09788636       0.44510201       0.01235102      -0.00053862      -0.00751752
H        0.08140524       0.83133268       1.58581524      -0.00796393      -0.00447330       0.00759864
H       -1.59428892       1.63352123      -0.07958060       0.00654295       0.00100021      -0.00113444
H       -0.32731410       1.90061833      -1.22320180      -0.00251619      -0.00095760       0.00412424
H       -0.39077786       2.87128850       0.23804944      -0.00286902       0.01016868       0.00097394
C        8.43779005       9.62781622       8.88762109      -0.01311808      -0.01719306      -0.00384950
C        7.85773603       7.57059831       7.76435198      -0.03783847      -0.08634888      -0.04730074
N        7.77703174       8.35873072       8.79753405       0.01126292       0.04094823       0.04155212
N        8.57319074       7.92333823       6.72935648       0.01690922       0.01575156       0.01173234
N        7.22517442       6.42392652       7.75581083       0.04333006       0.05547208       0.01699557
H        7.22574708       8.06153709       9.56578600      -0.00251742      -0.00130711      -0.00858155
H        9.05915755       8.78592009       6.71321232      -0.00941432      -0.00821903      -0.00307098
H        8.64918002       7.34049947       5.93190730      -0.01019021      -0.00778123      -0.00989690
H        6.67608630       6.13210070       8.52674667      -0.01151402      -0.00603538      -0.00756922
H        7.27530648       5.81308793       6.97793476      -0.01632505      -0.01547358      -0.01835544
H        8.09179297      10.30069140       8.12067033       0.00053260       0.00092425      -0.00132583
H        9.50751132       9.51310686       8.83069907       0.00127578       0.00041391      -0.00201600
H        8.20192357      10.06229414       9.83969098      -0.00218067      -0.00083251       0.00050322
23
Lattice="30.0 0.0 0.0 0.0 30.0 0.0 0.0 0.0 30.0" Properties=species:S:1:pos:R:3:forces:R:3 dimer_id=1386 label=CC chargeA=-1 energyA=-7291.51879223012 chargeB=1 energyB=-6671.61300155234 indexB=10 distance=14.999999996578222 distance_initial=5.594847786946981 energy=-13962.9273032939 pbc="T T T"
C        0.29438590       0.85350649       0.52570587      -0.00244299       0.01893883       0.00306260
C       -0.54839159       1.87963448      -0.16821228      -0.00101212      -0.00684945      -0.00098803
C        0.12695244      -0.57655720       0.00590970      -0.04029504      -0.04081527      -0.05247674
O       -0.66694580      -0.73455486      -0.91122808       0.04084889       0.03018809       0.04895908
O        0.81815788      -1.40958240       0.57753531       0.02233589       0.01715917       0.02313403
H        1.34485917       1.09788636       0.44510201       0.00931621      -0.00038467      -0.00551125
H        0.08140524       0.83133268       1.58581524      -0.00605945      -0.00334967       0.00579999
H       -1.59428892       1.63352123      -0.07958060       0.00507241       0.00071453      -0.00100008
H       -0.32731410       1.90061833      -1.22320180      -0.00209141      -0.00073175       0.00320915
H       -0.39077786       2.87128850       0.23804944      -0.00210123       0.00793585       0.00083154
C        9.12106017      10.31108634       9.57089121      -0.01049705      -0.01312393      -0.00352463
C        8.54100615       8.25386843       8.44762210      -0.02926389      -0.06707415      -0.03806179
N        8.46030186       9.04200084       9.48080417       0.00930780       0.03198256       0.03273287
N        9.25646086       8.60660835       7.41262660       0.01297102       0.01212778       0.01007484
N        7.90844454       7.10719664       8.43908095       0.03397432       0.04344714       0.01304955
H        7.90901720       8.74480721      10.24905612      -0.00222888      -0.00110413      -0.00673369
H        9.74242767       9.46919021       7.39648244      -0.00753936      -0.00639514      -0.00263937
H        9.33245014       8.02376959       6.61517742      -0.00783516      -0.00603429      -0.00789182
H        7.35935642       6.81537082       9.21001679      -0.00914432      -0.00486313      -0.00577965
H        7.95857660       6.49635805       7.66120488      -0.01255212      -0.01184858      -0.01407153
H        8.77506309      10.98396152       8.80394045       0.00024381       0.00075735      -0.00106669
H       10.19078144      10.19637698       9.51396919       0.00098085       0.00009584      -0.00160850
H        8.88519369      10.74556426      10.52296110      -0.00198815      -0.00077299       0.00050013
22
Lattice="30.0 0.0 0.0 0.0 30.0 0.0 0.0 0.0 30.0" Properties=species:S:1:pos:R:3:forces:R:3 dimer_id=1108 label=CP chargeA=1 energyA=-5695.03627782494 chargeB=0 energyB=-6671.61302129668 indexB=9 distance=5.285528038483129 distance_initial=5.285528038483129 energy=-12367.0691200273 pbc="T T T"
C        0.13375229      -1.18956665       0.77859119      -0.01502336       0.04668718      -0.07471895
C        0.04016612       0.08709598       0.01899357      -0.61119783      -0.48818875      -0.58959390
O        0.64886990       1.06070445       0.31730703       0.43299964       0.44833846       0.38671685
N       -0.77373837       0.05204901      -1.04437133       0.32806461       0.05671169       0.42409780
H       -0.83904229      -1.61990368       0.94913317       0.03467419      -0.00523640       0.01757261
H        0.62099775      -1.00417308       1.71654855      -0.02331152      -0.05946083       0.03568851
H       -0.85048681       0.86128718      -1.60889497      -0.01868370       0.01440572      -0.04440797
H       -1.27036436      -0.76205628      -1.29792944      -0.02990923      -0.03512276      -0.02509592
H        0.71940143      -1.89726314       0.21348748      -0.01082510      -0.00726765       0.01417777
C        4.56597056       4.09839321       2.43714620      -0.04301955      -0.05906829       0.00031870
C        2.68690029       2.78601798       3.19661458      -0.18952226      -0.27418674      -0.12357977
N        2.07235518       1.63298119       3.28547526       0.18044370       0.08087412       0.23549514
N        3.82958986       2.87652970       2.57923065       0.11846485       0.04825666       0.02565959
N        2.14842601       3.84987788       3.73116784      -0.00187270       0.11248096       0.08051933
H        2.45773783       0.81117650       2.88908318      -0.08198604       0.09000858      -0.14737168
H        1.20303685       1.54649797       3.75190879      -0.00264097       0.04321127      -0.11290253
H        4.21059149       2.05076613       2.18502896      -0.06047194       0.01820394      -0.03905030
H        2.59522950       4.73185565       3.67686797      -0.01814133      -0.02728804      -0.01525524
H        1.27991284       3.80556920       4.20567252       0.01376972      -0.01212180      -0.04536614
H        4.00157097       4.82903614       1.88188530      -0.00212615      -0.00099507      -0.00327152
H        5.46362730       3.88751206       1.88889777      -0.00225152      -0.00031609      -0.00330906
H        4.84902622       4.49470592       3.39812938       0.00256651       0.01007383       0.00367667
22
Lattice="30.0 0.0 0.0 0.0 30.0 0.0 0.0 0.0 30.0" Properties=species:S:1:pos:R:3:forces:R:3 dimer_id=1108 label=CP chargeA=1 energyA=-5695.03627782494 chargeB=0 energyB=-6671.61302129668 indexB=9 distance=5.765521821787282 distance_initial=5.285528038483129 energy=-12367.0094292379 pbc="T T T"
C        0.13375229      -1.18956665       0.77859119      -0.01240071       0.03787511      -0.05506991
C        0.04016612       0.08709598       0.01899357      -0.53038109      -0.44414886      -0.49774653
O        0.64886990       1.06070445       0.31730703       0.38001664       0.41785008       0.34151935
N       -0.77373837       0.05204901      -1.04437133       0.28689756       0.05559758       0.36561066
H       -0.83904229      -1.61990368       0.94913317       0.02834310      -0.00412413       0.01001379
H        0.62099775      -1.00417308       1.71654855      -0.01783809      -0.04435381       0.02407105
H       -0.85048681       0.86128718      -1.60889497      -0.01760229       0.01027251      -0.03911833
H       -1.27036436      -0.76205628      -1.29792944      -0.02526010      -0.03116378      -0.02153144
H        0.71940143      -1.89726314       0.21348748      -0.01125177      -0.00542957       0.00929634
C        4.84309510       4.37551775       2.71427074      -0.03355402      -0.04643309      -0.00057163
C        2.96402483       3.06314252       3.47373912      -0.14182279      -0.20583693      -0.08815316
N        2.34947972       1.91010573       3.56259980       0.13021191       0.07044319       0.15447834
N        4.10671440       3.15365424       2.85635519       0.09093884       0.04029281       0.02367890
N        2.42555055       4.12700242       4.00829238       0.00326007       0.08430008       0.06488141
H        2.73486237       1.08830104       3.16620772      -0.06600542       0.05076476      -0.11503556
H        1.48016139       1.82362251       4.02903333      -0.00894179       0.02783403      -0.09053912
H        4.48771603       2.32789067       2.46215350      -0.04556977       0.01214625      -0.03220017
H        2.87235404       5.00898019       3.95399251      -0.01466745      -0.02151436      -0.01337999
H        1.55703738       4.08269374       4.48279706       0.00814604      -0.01004988      -0.03732134
H        4.27869551       5.10616068       2.15900984      -0.00174265      -0.00109795      -0.00298884
H        5.74075184       4.16463660       2.16602231      -0.00230972      -0.00078934      -0.00327709
H        5.12615076       4.77183046       3.67525392       0.00153349       0.00756531       0.00338328
22
Lattice="30.0 0.0 0.0 0.0 30.0 0.0 0.0 0.0 30.0" Properties=species:S:1:pos:R:3:forces:R:3 dimer_id=1108 label=CP chargeA=1 energyA=-5695.03627782494 chargeB=0 energyB=-6671.61302129668 indexB=9 distance=6.289105209778594 distance_initial=5.285528038483129 energy=-12366.950602289 pbc="T T T"
C        0.13375229      -1.18956665       0.77859119      -0.00910236       0.03117507      -0.04035075
C        0.04016612       0.08709598       0.01899357      -0.45555125      -0.39123614      -0.42129312
O        0.64886990       1.06070445       0.31730703       0.32191917       0.37372079       0.28069796
N       -0.77373837       0.05204901      -1.04437133       0.24679020       0.05087085       0.31246245
H       -0.83904229      -1.61990368       0.94913317       0.02328792      -0.00321345       0.00533891
H        0.62099775      -1.00417308       1.71654855      -0.01460854      -0.03440370       0.01624626
H       -0.85048681       0.86128718      -1.60889497      -0.01611339       0.00684225      -0.03396173
H       -1.27036436      -0.76205628      -1.29792944      -0.02170529      -0.02737790      -0.01868576
H        0.71940143      -1.89726314       0.21348748      -0.01096221      -0.00413868       0.00608675
C        5.14538611       4.67780876       3.01656175      -0.02574211      -0.03608660      -0.00112499
C        3.26631584       3.36543353       3.77603013      -0.10622826      -0.15729652      -0.06102045
N        2.65177073       2.21239674       3.86489081       0.09941865       0.06345160       0.10966347
N        4.40900541       3.45594525       3.15864620       0.06920624       0.03286017       0.01940708
N        2.72784156       4.42929343       4.31058339       0.00466572       0.06398135       0.05142001
H        3.03715338       1.39059205       3.46849873      -0.05035004       0.02794927      -0.08538339
H        1.78245240       2.12591352       4.33132434      -0.01116299       0.01690896      -0.06961173
H        4.79000704       2.63018168       2.76444451      -0.03369139       0.00767465      -0.02582993
H        3.17464505       5.31127120       4.25628352      -0.01173350      -0.01688845      -0.01149825
H        1.85932839       4.38498475       4.78508807       0.00441468      -0.00821800      -0.02995884
H        4.58098652       5.40845169       2.46130085      -0.00138905      -0.00104003      -0.00262322
H        6.04304285       4.46692761       2.46831332      -0.00214594      -0.00107123      -0.00308791
H        5.42844177       5.07412147       3.97754493       0.00078372       0.00553572       0.00310717
22
Lattice="30.0 0.0 0.0 0.0 30.0 0.0 0.0 0.0 30.0" Properties=species:S:1:pos:R:3:forces:R:3 dimer_id=1108 label=CP chargeA=1 energyA=-5695.03627782494 chargeB=0 energyB=-6671.61302129668 indexB=9 distance=6.860236700654713 distance_initial=5.285528038483129 energy=-12366.8993201485 pbc="T T T"
C        0.13375229      -1.18956665       0.77859119      -0.00641171       0.02586955      -0.02999695
C        0.04016612       0.08709598       0.01899357      -0.38808821      -0.33800597      -0.35596393
O        0.64886990       1.06070445       0.31730703       0.26949509       0.32610729       0.22668442
N       -0.77373837       0.05204901      -1.04437133       0.21003794       0.04479462       0.26516596
H       -0.83904229      -1.61990368       0.94913317       0.01915053      -0.00258476       0.00247836
H        0.62099775      -1.00417308       1.71654855      -0.01187261      -0.02666596       0.01156345
H       -0.85048681       0.86128718      -1.60889497      -0.01448299       0.00409687      -0.02915597
H       -1.27036436      -0.76205628      -1.29792944      -0.01880715      -0.02385022      -0.01633175
H        0.71940143      -1.89726314       0.21348748      -0.01026752      -0.00329936       0.00391428
C        5.47512903       5.00755168       3.34630467      -0.01959379      -0.02803997      -0.00133643
C        3.59605876       3.69517645       4.10577305      -0.08012411      -0.12104840      -0.04197207
N        2.98151365       2.54213966       4.19463373       0.07679155       0.05559439       0.08048581
N        4.73874833       3.78568817       3.48838912       0.05298780       0.02668906       0.01478299
N        3.05758448       4.75903635       4.64032631       0.00445613       0.04926166       0.04048435
H        3.36689630       1.72033497       3.79824165      -0.03757561       0.01493476      -0.06235176
H        2.11219532       2.45565644       4.66106726      -0.01120449       0.00977322      -0.05232848
H        5.11974996       2.95992460       3.09418743      -0.02462226       0.00453617      -0.02037587
H        3.50438797       5.64101412       4.58602644      -0.00929784      -0.01329648      -0.00969148
H        2.18907131       4.71472767       5.11483099       0.00213089      -0.00672941      -0.02374293
H        4.91072944       5.73819461       2.79104377      -0.00110561      -0.00091687      -0.00227509
H        6.37278577       4.79667053       2.79805624      -0.00187837      -0.00123116      -0.00284944
H        5.75818469       5.40386439       4.30728785       0.00028235       0.00401098       0.00281254
22
Lattice="30.0 0.0 0.0 0.0 30.0 0.0 0.0 0.0 30.0" Properties=species:S:1:pos:R:3:forces:R:3 dimer_id=1108 label=CP chargeA=1 energyA=-5695.03627782494 chargeB=0 energyB=-6671.61302129668 indexB=9 distance=7.483234245117387 distance_initial=5.285528038483129 energy=-12366.8560008285 pbc="T T T"
C        0.13375229      -1.18956665       0.77859119      -0.00441199       0.02140328      -0.02272042
C        0.04016612       0.08709598       0.01899357      -0.32808738      -0.28820004      -0.29942660
O        0.64886990       1.06070445       0.31730703       0.22452135       0.28017299       0.18266441
N       -0.77373837       0.05204901      -1.04437133       0.17725237       0.03856332       0.22355310
H       -0.83904229      -1.61990368       0.94913317       0.01571075      -0.00216881       0.00074545
H        0.62099775      -1.00417308       1.71654855      -0.00956401      -0.02054756       0.00865634
H       -0.85048681       0.86128718      -1.60889497      -0.01280761       0.00201263      -0.02475632
H       -1.27036436      -0.76205628      -1.29792944      -0.01629950      -0.02061438      -0.01425956
H        0.71940143      -1.89726314       0.21348748      -0.00937540      -0.00273210       0.00243849
C        5.83481683       5.36723948       3.70599247      -0.01486793      -0.02196608      -0.00128735
C        3.95574656       4.05486425       4.46546085      -0.06059472      -0.09238970      -0.02924117
N        3.34120145       2.90182746       4.55432153       0.05858988       0.04642868       0.05968877
N        5.09843613       4.14537597       3.84807692       0.04088095       0.02173202       0.01089222
N        3.41727228       5.11872415       5.00001411       0.00394312       0.03817444       0.03193201
H        3.72658410       2.08002277       4.15792945      -0.02766275       0.00738751      -0.04545823
H        2.47188312       2.81534424       5.02075506      -0.01033935       0.00540796      -0.03881563
H        5.47943776       3.31961240       3.45387523      -0.01793207       0.00254515      -0.01585019
H        3.86407577       6.00070192       4.94571424      -0.00730411      -0.01052023      -0.00804616
H        2.54875911       5.07441547       5.47451879       0.00082078      -0.00554819      -0.01869938
H        5.27041724       6.09788241       3.15073157      -0.00089275      -0.00076095      -0.00195410
H        6.73247357       5.15635833       3.15774404      -0.00156014      -0.00130518      -0.00258308
H        6.11787249       5.76355219       4.66697565      -0.00001950       0.00292525       0.00252740
22
Lattice="30.0 0.0 0.0 0.0 30.0 0.0 0.0 0.0 30.0" Properties=species:S:1:pos:R:3:forces:R:3 dimer_id=1108 label=CP chargeA=1 energyA=-5695.03627782494 chargeB=0 energyB=-6671.61302129668 indexB=9 distance=8.162807964812208 distance_initial=5.285528038483129 energy=-12366.8194742658 pbc="T T T"
C        0.13375229      -1.18956665       0.77859119      -0.00303008       0.01759290      -0.01751240
C        0.04016612       0.08709598       0.01899357      -0.27526306      -0.24314240      -0.25041786
O        0.64886990       1.06070445       0.31730703       0.18641682       0.23796538       0.14744891
N       -0.77373837       0.05204901      -1.04437133       0.14845507       0.03268761       0.18719588
H       -0.83904229      -1.61990368       0.94913317       0.01282599      -0.00188213      -0.00028474
H        0.62099775      -1.00417308       1.71654855      -0.00767609      -0.01572554       0.00674292
H       -0.85048681       0.86128718      -1.60889497      -0.01116599       0.00050291      -0.02081564
H       -1.27036436      -0.76205628      -1.29792944      -0.01409310      -0.01770929      -0.01240478
H        0.71940143      -1.89726314       0.21348748      -0.00837980      -0.00233405       0.00140495
C        6.22716890       5.75959155       4.09834454      -0.01125479      -0.01739436      -0.00112733
C        4.34809863       4.44721632       4.85781292      -0.04582140      -0.06980427      -0.02077356
N        3.73355352       3.29417953       4.94667360       0.04387063       0.03736673       0.04413235
N        5.49078820       4.53772804       4.24042899       0.03167013       0.01779287       0.00796273
N        3.80962435       5.51107622       5.39236618       0.00335535       0.02963577       0.02518658
H        4.11893617       2.47237484       4.55028152      -0.02000127       0.00305353      -0.03298860
H        2.86423519       3.20769631       5.41310713      -0.00906112       0.00284309      -0.02848521
H        5.87178983       3.71196447       3.84622730      -0.01310464       0.00132454      -0.01222859
H        4.25642784       6.39305399       5.33806631      -0.00569943      -0.00838041      -0.00663539
H        2.94111118       5.46676754       5.86687086       0.00012820      -0.00461992      -0.01468186
H        5.66276931       6.49023448       3.54308364      -0.00074022      -0.00060250      -0.00166774
H        7.12482564       5.54871040       3.55009611      -0.00123797      -0.00132406      -0.00231268
H        6.51022456       6.15590426       5.05932772      -0.00019321       0.00215360       0.00226206
22
Lattice="30.0 0.0 0.0 0.0 30.0 0.0 0.0 0.0 30.0" Properties=species:S:1:pos:R:3:forces:R:3 dimer_id=1108 label=CP chargeA=1 energyA=-5695.03627782494 chargeB=0 energyB=-6671.61302129668 indexB=9 distance=8.9040957113317 distance_initial=5.285528038483129 energy=-12366.7886660946 pbc="T T T"
C        0.13375229      -1.18956665       0.77859119      -0.00208341       0.01432301      -0.01375327
C        0.04016612       0.08709598       0.01899357      -0.22908904      -0.20305252      -0.20807496
O        0.64886990       1.06070445       0.31730703       0.15413029       0.20004605       0.11919699
N       -0.77373837       0.05204901      -1.04437133       0.12340408       0.02734969       0.15562979
H       -0.83904229      -1.61990368       0.94913317       0.01038419      -0.00165879      -0.00086130
H        0.62099775      -1.00417308       1.71654855      -0.00608040      -0.01189992       0.00549706
H       -0.85048681       0.86128718      -1.60889497      -0.00959239      -0.00053772      -0.01731464
H       -1.27036436      -0.76205628      -1.29792944      -0.01212902      -0.01513893      -0.01072738
H        0.71940143      -1.89726314       0.21348748      -0.00735821      -0.00202266       0.00068257
C        6.65515158       6.18757423       4.52632722      -0.00849323      -0.01393450      -0.00093822
C        4.77608131       4.87519900       5.28579560      -0.03472066      -0.05265234      -0.01487159
N        4.16153620       3.72216221       5.37465628       0.03216641       0.02942988       0.03216633
N        5.91877088       4.96571072       4.66841167       0.02462360       0.01468736       0.00578143
N        4.23760703       5.93905890       5.82034886       0.00271407       0.02310101       0.01986571
H        4.54691885       2.90035752       4.97826420      -0.01426283       0.00076480      -0.02376716
H        3.29221787       3.63567899       5.84108981      -0.00757597       0.00139135      -0.02074866
H        6.29977251       4.13994715       4.27420998      -0.00960212       0.00059002      -0.00938438
H        4.68441052       6.82103667       5.76604899      -0.00441049      -0.00672493      -0.00544147
H        3.36909386       5.89475022       6.29485354      -0.00017095      -0.00388454      -0.01150202
H        6.09075199       6.91821716       3.97106632      -0.00062861      -0.00046601      -0.00141271
H        7.55280832       5.97669308       3.97807879      -0.00093648      -0.00130415      -0.00204925
H        6.93820724       6.58388694       5.48731040      -0.00028885       0.00159383       0.00202711
22
Lattice="30.0 0.0 0.0 0.0 30.0 0.0 0.0 0.0 30.0" Properties=species:S:1:pos:R:3:forces:R:3 dimer_id=1108 label=CP chargeA=1 energyA=-5695.03627782494 chargeB=0 energyB=-6671.61302129668 indexB=9 distance=9.712701898794423 distance_initial=5.285528038483129 energy=-12366.7624687757 pbc="T T T"
C        0.13375229      -1.18956665       0.77859119      -0.00141646       0.01153235      -0.01098430
C        0.04016612       0.08709598       0.01899357      -0.18916398      -0.16801233      -0.17167710
O        0.64886990       1.06070445       0.31730703       0.12675043       0.16657451       0.09618315
N       -0.77373837       0.05204901      -1.04437133       0.10179591       0.02261851       0.12839675
H       -0.83904229      -1.61990368       0.94913317       0.00830340      -0.00147661      -0.00114449
H        0.62099775      -1.00417308       1.71654855      -0.00476889      -0.00889591       0.00462771
H       -0.85048681       0.86128718      -1.60889497      -0.00812900      -0.00120697      -0.01424097
H       -1.27036436      -0.76205628      -1.29792944      -0.01037921      -0.01289176      -0.00921080
H        0.71940143      -1.89726314       0.21348748      -0.00636435      -0.00177071       0.00017131
C        7.12200058       6.65442323       4.99317622      -0.00638175      -0.01131153      -0.00075615
C        5.24293031       5.34204800       5.75264460      -0.02644530      -0.03992555      -0.01063872
N        4.62838520       4.18901121       5.84150528       0.02334446       0.02302637       0.02347106
N        6.38561988       5.43255972       5.13526067       0.01922710       0.01225866       0.00413417
N        4.70445603       6.40590790       6.28719786       0.00208168       0.01815416       0.01570033
H        5.01376785       3.36720652       5.44511320      -0.01013584      -0.00027025      -0.01712861
H        3.75906687       4.10252799       6.30793881      -0.00610506       0.00060876      -0.01511231
H        6.76662151       4.60679615       4.74105898      -0.00704966       0.00015070      -0.00716205
H        5.15125952       7.28788567       6.23289799      -0.00337727      -0.00543490      -0.00444341
H        3.83594286       6.36159922       6.76170254      -0.00024168      -0.00329911      -0.00900738
H        6.55760099       7.38506616       4.43791532      -0.00054722      -0.00035044      -0.00119476
H        8.01965732       6.44354208       4.44492779      -0.00066510      -0.00126612      -0.00180850
H        7.40505624       7.05073594       5.95415940      -0.00033221       0.00118817       0.00182507
22
Lattice="30.0 0.0 0.0 0.0 30.0 0.0 0.0 0.0 30.0" Properties=species:S:1:pos:R:3:forces:R:3 dimer_id=1108 label=CP chargeA=1 energyA=-5695.03627782494 chargeB=0 energyB=-6671.61302129668 indexB=9 distance=10.594739904448739 distance_initial=5.285528038483129 energy=-12366.7401908843 pbc="T T T"
C        0.13375229      -1.18956665       0.77859119      -0.00093543       0.00915529      -0.00889703
C        0.04016612       0.08709598       0.01899357      -0.15493231      -0.13778932      -0.14056547
O        0.64886990       1.06070445       0.31730703       0.10355871       0.13742670       0.07728728
N       -0.77373837       0.05204901      -1.04437133       0.08328271       0.01848898       0.10503431
H       -0.83904229      -1.61990368       0.94913317       0.00653478      -0.00131565      -0.00123798
H        0.62099775      -1.00417308       1.71654855      -0.00370736      -0.00654296       0.00397274
H       -0.85048681       0.86128718      -1.60889497      -0.00679230      -0.00159293      -0.01156418
H       -1.27036436      -0.76205628      -1.29792944      -0.00882082      -0.01093800      -0.00783527
H        0.71940143      -1.89726314       0.21348748      -0.00542260      -0.00155994      -0.00019195
C        7.63124546       7.16366811       5.50242110      -0.00475906      -0.00930912      -0.00058472
C        5.75217519       5.85129288       6.26188948      -0.02023752      -0.03042062      -0.00757459
N        5.13763008       4.69825609       6.35075016       0.01677897       0.01798988       0.01727535
N        6.89486476       5.94180460       5.64450555       0.01509707       0.01036638       0.00290232
N        5.21370091       6.91515278       6.79644274       0.00150610       0.01440753       0.01245429
H        5.52301273       3.87645140       5.95435808      -0.00718546      -0.00064026      -0.01238369
H        4.26831175       4.61177287       6.81718369      -0.00478243       0.00022463      -0.01103607
H        7.27586639       5.11604103       5.25030386      -0.00518410      -0.00009936      -0.00543144
H        5.66050440       7.79713055       6.74214287      -0.00255178      -0.00443123      -0.00361593
H        4.34518774       6.87084410       7.27094742      -0.00018348      -0.00283374      -0.00705967
H        7.06684587       7.89431104       4.94716020      -0.00049039      -0.00025894      -0.00100964
H        8.52890220       6.95278696       4.95417267      -0.00042985      -0.00122042      -0.00159176
H        7.91430112       7.55998082       6.46340428      -0.00034345       0.00089309       0.00165311
22
Lattice="30.0 0.0 0.0 0.0 30.0 0.0 0.0 0.0 30.0" Properties=species:S:1:pos:R:3:forces:R:3 dimer_id=1108 label=CP chargeA=1 energyA=-5695.03627782494 chargeB=0 energyB=-6671.61302129668 indexB=9 distance=11.55687827978836 distance_initial=5.285528038483129 energy=-12366.721368462 pbc="T T T"
C        0.13375229      -1.18956665       0.77859119      -0.00057722       0.00713957      -0.00730700
C        0.04016612       0.08709598       0.01899357      -0.12576757      -0.11195591      -0.11409981
O        0.64886990       1.06070445       0.31730703       0.08399770       0.11235991       0.06175258
N       -0.77373837       0.05204901      -1.04437133       0.06751239       0.01492237       0.08510497
H       -0.83904229      -1.61990368       0.94913317       0.00502873      -0.00117229      -0.00121595
H        0.62099775      -1.00417308       1.71654855      -0.00285172      -0.00469774       0.00346358
H       -0.85048681       0.86128718      -1.60889497      -0.00559004      -0.00177232      -0.00925323
H       -1.27036436      -0.76205628      -1.29792944      -0.00743933      -0.00924625      -0.00659582
H        0.71940143      -1.89726314       0.21348748      -0.00455478      -0.00137891      -0.00044741
C        8.18673631       7.71915896       6.05791195      -0.00350412      -0.00777492      -0.00043241
C        6.30766604       6.40678373       6.81738033      -0.01555400      -0.02328314      -0.00533343
N        5.69312093       5.25374694       6.90624101       0.01188729       0.01405888       0.01285602
N        7.45035561       6.49729545       6.19999640       0.01192099       0.00888554       0.00197055
N        5.76919176       7.47064363       7.35193359       0.00100252       0.01156263       0.00992675
H        6.07850358       4.43194225       6.50984893      -0.00506828      -0.00067464      -0.00898157
H        4.82380260       5.16726372       7.37267454      -0.00365128       0.00006735      -0.00808958
H        7.83135724       5.67153188       5.80579471      -0.00381660      -0.00023630      -0.00408983
H        6.21599525       8.35262140       7.29763372      -0.00189406      -0.00364905      -0.00293644
H        4.90067859       7.42633495       7.82643827      -0.00005900      -0.00246930      -0.00554525
H        7.62233672       8.44980189       5.50265105      -0.00045152      -0.00018694      -0.00085356
H        9.08439305       7.50827781       5.50966352      -0.00023244      -0.00117439      -0.00140061
H        8.46979197       8.11547167       7.01889513      -0.00033768       0.00067583       0.00150746
22
Lattice="30.0 0.0 0.0 0.0 30.0 0.0 0.0 0.0 30.0" Properties=species:S:1:pos:R:3:forces:R:3 dimer_id=1108 label=CP chargeA=1 energyA=-5695.03627782494 chargeB=0 energyB=-6671.61302129668 indexB=9 distance=12.60639118787187 distance_initial=5.285528038483129 energy=-12366.7055590632 pbc="T T T"
C        0.13375229      -1.18956665       0.77859119      -0.00030907       0.00544329      -0.00608968
C        0.04016612       0.08709598       0.01899357      -0.10105502      -0.09002364      -0.09170370
O        0.64886990       1.06070445       0.31730703       0.06755035       0.09096246       0.04897649
N       -0.77373837       0.05204901      -1.04437133       0.05415627       0.01187347       0.06819394
H       -0.83904229      -1.61990368       0.94913317       0.00375359      -0.00104169      -0.00112619
H        0.62099775      -1.00417308       1.71654855      -0.00215963      -0.00324791       0.00306332
H       -0.85048681       0.86128718      -1.60889497      -0.00452659      -0.00180884      -0.00727734
H       -1.27036436      -0.76205628      -1.29792944      -0.00622850      -0.00779273      -0.00548971
H        0.71940143      -1.89726314       0.21348748      -0.00376938      -0.00122145      -0.00062647
C        8.79267287       8.32509552       6.66384851      -0.00253641      -0.00659673      -0.00030040
C        6.91360260       7.01272029       7.42331689      -0.01200045      -0.01788962      -0.00367722
N        6.29905749       5.85968350       7.51217757       0.00822564       0.01099937       0.00968270
N        8.05629217       7.10323201       6.80593296       0.00948175       0.00773481       0.00127329
N        6.37512832       8.07658019       7.95787015       0.00057282       0.00939719       0.00796015
H        6.68444014       5.03787881       7.11578549      -0.00354102      -0.00054911      -0.00652709
H        5.42973916       5.77320028       7.97861110      -0.00271339       0.00003276      -0.00595436
H        8.43729380       6.27746844       6.41173127      -0.00281038      -0.00030365      -0.00305188
H        6.82193181       8.95855796       7.90357028      -0.00137088      -0.00303826      -0.00238169
H        5.50661515       8.03227151       8.43237483       0.00009414      -0.00218368      -0.00437018
H        8.22827328       9.05573845       6.10858761      -0.00042505      -0.00013098      -0.00072461
H        9.69032961       8.11421437       6.11560008      -0.00006711      -0.00113214      -0.00123543
H        9.07572853       8.72140823       7.62483169      -0.00032167       0.00051709       0.00138607
22
Lattice="30.0 0.0 0.0 0.0 30.0 0.0 0.0 0.0 30.0" Properties=species:S:1:pos:R:3:forces:R:3 dimer_id=1108 label=CP chargeA=1 energyA=-5695.03627782494 chargeB=0 energyB=-6671.61302129668 indexB=9 distance=13.751213320880316 distance_initial=5.285528038483129 energy=-12366.6923374253 pbc="T T T"
C        0.13375229      -1.18956665       0.77859119      -0.00010411       0.00402481      -0.00515448
C        0.04016612       0.08709598       0.01899357      -0.08025264      -0.07153592      -0.07285915
O        0.64886990       1.06070445       0.31730703       0.05380028       0.07287203       0.03849848
N       -0.77373837       0.05204901      -1.04437133       0.04291398       0.00928761       0.05393293
H       -0.83904229      -1.61990368       0.94913317       0.00267474      -0.00092519      -0.00100126
H        0.62099775      -1.00417308       1.71654855      -0.00160000      -0.00210716       0.00274554
H       -0.85048681       0.86128718      -1.60889497      -0.00359910      -0.00175480      -0.00560298
H       -1.27036436      -0.76205628      -1.29792944      -0.00517356      -0.00654795      -0.00451197
H        0.71940143      -1.89726314       0.21348748      -0.00307073      -0.00108702      -0.00075023
C        9.45363624       8.98605889       7.32481187      -0.00178707      -0.00568861      -0.00018982
C        7.57456597       7.67368366       8.08428025      -0.00929520      -0.01379374      -0.00244417
N        6.96002086       6.52064687       8.17314093       0.00547688       0.00861899       0.00738758
N        8.71725554       7.76419538       7.46689632       0.00760242       0.00683678       0.00074428
N        7.03609169       8.73754356       8.61883351       0.00021616       0.00774042       0.00642671
H        7.34540351       5.69884218       7.77674885      -0.00243514      -0.00035850      -0.00474630
H        6.09070253       6.43416365       8.63957446      -0.00195169       0.00005955      -0.00440169
H        9.09825717       6.93843181       7.07269463      -0.00206652      -0.00033121      -0.00225008
H        7.48289518       9.61952133       8.56453364      -0.00095632      -0.00256171      -0.00193377
H        6.16757852       8.69323488       9.09333819       0.00025047      -0.00196218      -0.00345867
H        8.88923665       9.71670182       6.76955097      -0.00040908      -0.00008833      -0.00061956
H       10.35129298       8.77517774       6.77656344       0.00006955      -0.00109607      -0.00109679
H        9.73669190       9.38237160       8.28579505      -0.00030333       0.00039821       0.00128540
22
Lattice="30.0 0.0 0.0 0.0 30.0 0.0 0.0 0.0 30.0" Properties=species:S:1:pos:R:3:forces:R:3 dimer_id=1108 label=CP chargeA=1 energyA=-5695.03627782494 chargeB=0 energyB=-6671.61302129668 indexB=9 distance=14.999999996506736 distance_initial=5.285528038483129 energy=-12366.681345625 pbc="T T T"
C        0.13375229      -1.18956665       0.77859119       0.00005583       0.00285282      -0.00443772
C        0.04016612       0.08709598       0.01899357      -0.06288566      -0.05610659      -0.05711799
O        0.64886990       1.06070445       0.31730703       0.04238026       0.05771751       0.02992598
N       -0.77373837       0.05204901      -1.04437133       0.03352013       0.00711412       0.04198856
H       -0.83904229      -1.61990368       0.94913317       0.00176903      -0.00082055      -0.00086028
H        0.62099775      -1.00417308       1.71654855      -0.00114741      -0.00120989       0.00249196
H       -0.85048681       0.86128718      -1.60889497      -0.00280173      -0.00164286      -0.00419952
H       -1.27036436      -0.76205628      -1.29792944      -0.00426337      -0.00548723      -0.00365389
H        0.71940143      -1.89726314       0.21348748      -0.00245739      -0.00097337      -0.00083141
C       10.17462356       9.70704621       8.04579920      -0.00120829      -0.00499219      -0.00010042
C        8.29555329       8.39467098       8.80526758      -0.00723371      -0.01067125      -0.00151839
N        7.68100818       7.24163419       8.89412826       0.00340509       0.00677123       0.00571369
N        9.43824286       8.48518270       8.18788365       0.00615895       0.00614053       0.00034318
N        7.75707901       9.45853088       9.33982084      -0.00007327       0.00647059       0.00523499
H        8.06639083       6.41982950       8.49773618      -0.00162848      -0.00015424      -0.00344495
H        6.81168985       7.15515097       9.36056179      -0.00134160       0.00011305      -0.00326356
H        9.81924449       7.65941913       7.79368196      -0.00151212      -0.00033618      -0.00163199
H        8.20388250      10.34050865       9.28552097      -0.00063070      -0.00218798      -0.00157546
H        6.88856584       9.41422220       9.81432552       0.00039676      -0.00178926      -0.00275257
H        9.61022397      10.43768914       7.49053830      -0.00039872      -0.00005379      -0.00053293
H       11.07228030       9.49616506       7.49755077       0.00018056      -0.00106640      -0.00098208
H       10.45767922      10.10335892       9.00678238      -0.00028417       0.00031193       0.00120479
25
Lattice="30.0 0.0 0.0 0.0 30.0 0.0 0.0 0.0 30.0" Properties=species:S:1:pos:R:3:forces:R:3 dimer_id=2058 label=PP chargeA=0 energyA=-4220.59833568394 chargeB=0 energyB=-9438.64663732427 indexB=9 distance=5.156795504123839 distance_initial=5.156795504123839 energy=-13659.3392821194 pbc="T T T"
C        0.16042344       0.37387163       0.37178197       0.08858192      -0.00805839       0.04796907
C        0.01548177      -1.08373518       0.66935524      -0.01669036      -0.00078430       0.00602696
O       -0.19348916       0.69059903      -0.92647423      -0.02456355       0.04502826      -0.05287951
H       -0.49223879       0.94899619       1.00799893      -0.00076742       0.00277633       0.01464385
H        1.17236400       0.69834254       0.58287344      -0.01826823       0.01037852       0.03045664
H        0.26060637      -1.28981620       1.69922236       0.00697058       0.00859570      -0.00494608
H        0.35428107       0.22094359      -1.52668288       0.00316087      -0.00662742       0.00230903
H        0.67581217      -1.67322125       0.05035361       0.00218835       0.00566981       0.00198630
H       -0.99578953      -1.40794603       0.48540340      -0.00536472      -0.00494772      -0.00306571
C        2.55905836       1.84640389       5.60837762       0.00177726      -0.00317509      -0.00213897
C        1.71116862       2.77423787       3.45813231      -0.00138156      -0.01010873      -0.01122068
C        2.76491349       2.42964831       4.26058484       0.00112676      -0.01174163       0.00246393
C        1.90489210       3.30770631       2.20937655      -0.03256004      -0.00574879      -0.01773969
C        3.17411049       3.50633318       1.74106473      -0.00172761       0.01096361      -0.02341748
C        4.03369517       2.63890464       3.76912916       0.00654864      -0.00686732       0.00194931
C        4.24486394       3.16817481       2.53009504       0.00511642      -0.01222725       0.00245156
O        3.42633226       4.02058393       0.53910994       0.00422977      -0.01614572       0.01497641
H        0.71038403       2.62632662       3.80890489      -0.00424290       0.00520515       0.00177193
H        1.06105222       3.56903029       1.60251703       0.00272368      -0.00719888      -0.00719967
H        1.51353771       1.81703141       5.86399608      -0.00137262       0.00229878       0.00157303
H        3.06899504       2.42194027       6.36467199      -0.00190670      -0.00124415      -0.00050745
H        4.87932370       2.38049970       4.37388975       0.00042043       0.00162038       0.00184752
H        2.62555848       4.21429661       0.08864503      -0.01832316      -0.00108462      -0.01318246
H        5.23381364       3.32766485       2.15653569       0.00215038       0.00276125       0.00223643
H        2.93920888       0.83780183       5.65857465       0.00217381       0.00066223       0.00363573
25
Lattice="30.0 0.0 0.0 0.0 30.0 0.0 0.0 0.0 30.0" Properties=species:S:1:pos:R:3:forces:R:3 dimer_id=2058 label=PP chargeA=0 energyA=-4220.59833568394 chargeB=0 energyB=-9438.64663732427 indexB=9 distance=5.6366688579353434 distance_initial=5.156795504123839 energy=-13659.3075806483 pbc="T T T"
C        0.16042344       0.37387163       0.37178197       0.05916260       0.00088575       0.03538482
C        0.01548177      -1.08373518       0.66935524      -0.01025843      -0.00048680       0.00585399
O       -0.19348916       0.69059903      -0.92647423      -0.01722822       0.03155032      -0.03548555
H       -0.49223879       0.94899619       1.00799893      -0.00391527      -0.00003813       0.00940628
H        1.17236400       0.69834254       0.58287344      -0.00685993       0.00719131       0.02223551
H        0.26060637      -1.28981620       1.69922236       0.00516372       0.00576694      -0.00432432
H        0.35428107       0.22094359      -1.52668288       0.00216162      -0.00492656       0.00171122
H        0.67581217      -1.67322125       0.05035361       0.00159820       0.00461930       0.00199453
H       -0.99578953      -1.40794603       0.48540340      -0.00375300      -0.00250616      -0.00258846
C        2.83611337       2.12345890       5.88543263       0.00201870      -0.00319704      -0.00176992
C        1.98822363       3.05129288       3.73518732      -0.00207570      -0.00965079      -0.00642628
C        3.04196850       2.70670332       4.53763985       0.00298023      -0.00745077       0.00228593
C        2.18194711       3.58476132       2.48643156      -0.02767350      -0.01250970      -0.01859367
C        3.45116550       3.78338819       2.01811974       0.00370439       0.00672356      -0.02058144
C        4.31075018       2.91595965       4.04618417       0.00327340      -0.00528351       0.00271618
C        4.52191895       3.44522982       2.80715005       0.00290543      -0.00738023       0.00034998
O        3.70338727       4.29763894       0.81616495       0.00260773      -0.01211663       0.01391857
H        0.98743904       2.90338163       4.08595990      -0.00266430       0.00480017       0.00087343
H        1.33810723       3.84608530       1.87957204       0.00033796      -0.00203335      -0.00398889
H        1.79059272       2.09408642       6.14105109      -0.00125875       0.00204205       0.00144396
H        3.34605005       2.69899528       6.64172700      -0.00181238      -0.00106673      -0.00036049
H        5.15637871       2.65755471       4.65094476       0.00039827       0.00127165       0.00152360
H        2.90261349       4.49135162       0.36570004      -0.01223032       0.00066210      -0.01032455
H        5.51086865       3.60471986       2.43359070       0.00173008       0.00225692       0.00194932
H        3.21626389       1.11485684       5.93562966       0.00168743       0.00087630       0.00279626
25
Lattice="30.0 0.0 0.0 0.0 30.0 0.0 0.0 0.0 30.0" Properties=species:S:1:pos:R:3:forces:R:3 dimer_id=2058 label=PP chargeA=0 energyA=-4220.59833568394 chargeB=0 energyB=-9438.64663732427 indexB=9 distance=6.161197547295901 distance_initial=5.156795504123839 energy=-13659.2836898007 pbc="T T T"
C        0.16042344       0.37387163       0.37178197       0.03850759       0.00073015       0.02365656
C        0.01548177      -1.08373518       0.66935524      -0.00686791      -0.00052251       0.00463377
O       -0.19348916       0.69059903      -0.92647423      -0.01206392       0.02257167      -0.02319036
H       -0.49223879       0.94899619       1.00799893      -0.00464044      -0.00119551       0.00598363
H        1.17236400       0.69834254       0.58287344      -0.00320450       0.00200729       0.01364355
H        0.26060637      -1.28981620       1.69922236       0.00375420       0.00372853      -0.00348447
H        0.35428107       0.22094359      -1.52668288       0.00136661      -0.00360852       0.00107225
H        0.67581217      -1.67322125       0.05035361       0.00108460       0.00369811       0.00186356
H       -0.99578953      -1.40794603       0.48540340      -0.00251071      -0.00123947      -0.00201703
C        3.13895015       2.42629568       6.18826941       0.00202652      -0.00318343      -0.00155408
C        2.29106041       3.35412966       4.03802410      -0.00114540      -0.00625674      -0.00345870
C        3.34480528       3.00954010       4.84047663       0.00264717      -0.00476176       0.00153492
C        2.48478389       3.88759810       2.78926834      -0.01901017      -0.00892259      -0.01310710
C        3.75400228       4.08622497       2.32095652       0.00412150       0.00530764      -0.01589331
C        4.61358696       3.21879643       4.34902095       0.00215915      -0.00435192       0.00278529
C        4.82475573       3.74806660       3.10998683       0.00152878      -0.00489922      -0.00073796
O        4.00622405       4.60047572       1.11900173       0.00132178      -0.00942909       0.01174394
H        1.29027582       3.20621841       4.38879668      -0.00169874       0.00383193       0.00025840
H        1.64094401       4.14892208       2.18240882       0.00013571       0.00026063      -0.00188710
H        2.09342950       2.39692320       6.44388787      -0.00107929       0.00180123       0.00127334
H        3.64888683       3.00183206       6.94456378      -0.00167303      -0.00086946      -0.00032845
H        5.45921549       2.96039149       4.95378154       0.00035549       0.00096010       0.00123385
H        3.20545027       4.79418840       0.66853682      -0.00789459       0.00153024      -0.00788625
H        5.81370543       3.90755664       2.73642748       0.00143971       0.00176074       0.00172869
H        3.51910067       1.41769362       6.23846644       0.00133990       0.00105197       0.00213305
25
Lattice="30.0 0.0 0.0 0.0 30.0 0.0 0.0 0.0 30.0" Properties=species:S:1:pos:R:3:forces:R:3 dimer_id=2058 label=PP chargeA=0 energyA=-4220.59833568394 chargeB=0 energyB=-9438.64663732427 indexB=9 distance=6.73453705654151 distance_initial=5.156795504123839 energy=-13659.2682862227 pbc="T T T"
C        0.16042344       0.37387163       0.37178197       0.02506325      -0.00041903       0.01527789
C        0.01548177      -1.08373518       0.66935524      -0.00491429      -0.00071061       0.00324056
O       -0.19348916       0.69059903      -0.92647423      -0.00848318       0.01633850      -0.01482788
H       -0.49223879       0.94899619       1.00799893      -0.00440967      -0.00120604       0.00402607
H        1.17236400       0.69834254       0.58287344      -0.00186865      -0.00093766       0.00751257
H        0.26060637      -1.28981620       1.69922236       0.00266095       0.00230590      -0.00264711
H        0.35428107       0.22094359      -1.52668288       0.00068376      -0.00257613       0.00058810
H        0.67581217      -1.67322125       0.05035361       0.00066508       0.00293776       0.00169192
H       -0.99578953      -1.40794603       0.48540340      -0.00167570      -0.00055922      -0.00144584
C        3.46996787       2.75731340       6.51928713       0.00199354      -0.00316747      -0.00135665
C        2.62207813       3.68514738       4.36904182      -0.00027670      -0.00340758      -0.00176993
C        3.67582300       3.34055782       5.17149435       0.00194699      -0.00322509       0.00086172
C        2.81580161       4.21861582       3.12028606      -0.01200725      -0.00483893      -0.00812147
C        4.08502000       4.41724269       2.65197424       0.00334105       0.00448491      -0.01169086
C        4.94460468       3.54981415       4.68003867       0.00177156      -0.00370418       0.00257281
C        5.15577345       4.07908432       3.44100455       0.00074302      -0.00353743      -0.00125167
O        4.33724177       4.93149344       1.45001945       0.00042021      -0.00746543       0.00933578
H        1.62129354       3.53723613       4.71981440      -0.00113819       0.00295645      -0.00012623
H        1.97196173       4.47993980       2.51342654       0.00030650       0.00066392      -0.00086739
H        2.42444722       2.72794092       6.77490559      -0.00090423       0.00160258       0.00108863
H        3.97990455       3.33284978       7.27558150      -0.00154830      -0.00068553      -0.00036097
H        5.79023321       3.29140921       5.28479926       0.00030205       0.00073049       0.00101245
H        3.53646799       5.12520612       0.99955454      -0.00499049       0.00184446      -0.00593949
H        6.14472315       4.23857436       3.06744520       0.00125548       0.00137299       0.00156985
H        3.85011839       1.74871134       6.56948416       0.00106323       0.00120237       0.00162713
25
Lattice="30.0 0.0 0.0 0.0 30.0 0.0 0.0 0.0 30.0" Properties=species:S:1:pos:R:3:forces:R:3 dimer_id=2058 label=PP chargeA=0 energyA=-4220.59833568394 chargeB=0 energyB=-9438.64663732427 indexB=9 distance=7.361229515709937 distance_initial=5.156795504123839 energy=-13659.259039099 pbc="T T T"
C        0.16042344       0.37387163       0.37178197       0.01644807      -0.00102558       0.00972060
C        0.01548177      -1.08373518       0.66935524      -0.00373281      -0.00104109       0.00208770
O       -0.19348916       0.69059903      -0.92647423      -0.00596808       0.01208488      -0.00919868
H       -0.49223879       0.94899619       1.00799893      -0.00386704      -0.00091875       0.00284857
H        1.17236400       0.69834254       0.58287344      -0.00126976      -0.00205907       0.00375249
H        0.26060637      -1.28981620       1.69922236       0.00182693       0.00135421      -0.00192880
H        0.35428107       0.22094359      -1.52668288       0.00015093      -0.00181666       0.00022512
H        0.67581217      -1.67322125       0.05035361       0.00039143       0.00230901       0.00148592
H       -0.99578953      -1.40794603       0.48540340      -0.00112779      -0.00019881      -0.00097411
C        3.83178893       3.11913446       6.88110819       0.00197121      -0.00314008      -0.00117204
C        2.98389919       4.04696844       4.73086288       0.00010699      -0.00162988      -0.00052617
C        4.03764406       3.70237888       5.53331541       0.00145331      -0.00223900       0.00043567
C        3.17762267       4.58043688       3.48210712      -0.00737422      -0.00203473      -0.00494796
C        4.44684106       4.77906375       3.01379530       0.00266567       0.00369273      -0.00853865
C        5.30642574       3.91163521       5.04185973       0.00154995      -0.00322893       0.00233124
C        5.51759451       4.44090538       3.80282561       0.00030781      -0.00281991      -0.00142633
O        4.69906283       5.29331450       1.81184051      -0.00009439      -0.00582686       0.00699998
H        1.98311460       3.89905719       5.08163546      -0.00077769       0.00226811      -0.00033803
H        2.33378279       4.84176086       2.87524760       0.00037363       0.00053961      -0.00047012
H        2.78626828       3.08976198       7.13672665      -0.00078920       0.00143841       0.00093422
H        4.34172561       3.69467084       7.63740256      -0.00144138      -0.00053383      -0.00039667
H        6.15205427       3.65323027       5.64662032       0.00026256       0.00057379       0.00084532
H        3.89828905       5.48702718       1.36137560      -0.00304468       0.00185182      -0.00441614
H        6.50654421       4.60039542       3.42926626       0.00113600       0.00108437       0.00144564
H        4.21193945       2.11053240       6.93130522       0.00084258       0.00131622       0.00122122
25
Lattice="30.0 0.0 0.0 0.0 30.0 0.0 0.0 0.0 30.0" Properties=species:S:1:pos:R:3:forces:R:3 dimer_id=2058 label=PP chargeA=0 energyA=-4220.59833568394 chargeB=0 energyB=-9438.64663732427 indexB=9 distance=8.046239796479556 distance_initial=5.156795504123839 energy=-13659.2537282587 pbc="T T T"
C        0.16042344       0.37387163       0.37178197       0.01079712      -0.00089652       0.00600832
C        0.01548177      -1.08373518       0.66935524      -0.00294249      -0.00136823       0.00136031
O       -0.19348916       0.69059903      -0.92647423      -0.00417412       0.00906882      -0.00533032
H       -0.49223879       0.94899619       1.00799893      -0.00316926      -0.00060115       0.00217656
H        1.17236400       0.69834254       0.58287344      -0.00079714      -0.00220315       0.00175094
H        0.26060637      -1.28981620       1.69922236       0.00119312       0.00071915      -0.00138115
H        0.35428107       0.22094359      -1.52668288      -0.00022861      -0.00125151      -0.00002934
H        0.67581217      -1.67322125       0.05035361       0.00021922       0.00180354       0.00125662
H       -0.99578953      -1.40794603       0.48540340      -0.00075188      -0.00002701      -0.00066122
C        4.22727980       3.51462533       7.27659906       0.00195782      -0.00315424      -0.00107580
C        3.37939006       4.44245931       5.12635375       0.00009629      -0.00076405       0.00025278
C        4.43313493       4.09786975       5.92880628       0.00118461      -0.00166663       0.00015885
C        3.57311354       4.97592775       3.87759799      -0.00471247      -0.00049918      -0.00326926
C        4.84233193       5.17455462       3.40928617       0.00225442       0.00283823      -0.00615611
C        5.70191661       4.30712608       5.43735060       0.00137404      -0.00286072       0.00211302
C        5.91308538       4.83639625       4.19831648       0.00004057      -0.00231104      -0.00149242
O        5.09455370       5.68880537       2.20733138      -0.00037288      -0.00442763       0.00481345
H        2.37860547       4.29454806       5.47712633      -0.00050893       0.00176513      -0.00045150
H        2.72927366       5.23725173       3.27073847       0.00037409       0.00055434      -0.00024679
H        3.18175915       3.48525285       7.53221752      -0.00073189       0.00129081       0.00082167
H        4.73721648       4.09016171       8.03289343      -0.00134580      -0.00040577      -0.00042085
H        6.54754514       4.04872114       6.04211119       0.00022249       0.00045480       0.00071743
H        4.29377992       5.88251805       1.75686647      -0.00169527       0.00168415      -0.00318264
H        6.90203508       4.99588629       3.82475713       0.00105463       0.00085578       0.00135236
H        4.60743032       2.50602327       7.32679609       0.00066230       0.00140206       0.00091511
25
Lattice="30.0 0.0 0.0 0.0 30.0 0.0 0.0 0.0 30.0" Properties=species:S:1:pos:R:3:forces:R:3 dimer_id=2058 label=PP chargeA=0 energyA=-4220.59833568394 chargeB=0 energyB=-9438.64663732427 indexB=9 distance=8.794994743120132 distance_initial=5.156795504123839 energy=-13659.250754386 pbc="T T T"
C        0.16042344       0.37387163       0.37178197       0.00716209      -0.00045602       0.00360650
C        0.01548177      -1.08373518       0.66935524      -0.00240495      -0.00158691       0.00089722
O       -0.19348916       0.69059903      -0.92647423      -0.00291064       0.00688715      -0.00277128
H       -0.49223879       0.94899619       1.00799893      -0.00252190      -0.00031811       0.00177535
H        1.17236400       0.69834254       0.58287344      -0.00033912      -0.00175925       0.00090388
H        0.26060637      -1.28981620       1.69922236       0.00072952       0.00031010      -0.00095979
H        0.35428107       0.22094359      -1.52668288      -0.00050987      -0.00080059      -0.00020449
H        0.67581217      -1.67322125       0.05035361       0.00010881       0.00140536       0.00103345
H       -0.99578953      -1.40794603       0.48540340      -0.00050223       0.00003344      -0.00045737
C        4.65957367       3.94691920       7.70889293       0.00194208      -0.00318650      -0.00102520
C        3.81168393       4.87475318       5.55864762      -0.00004959      -0.00027830       0.00061535
C        4.86542880       4.53016362       6.36110015       0.00104258      -0.00129876      -0.00000195
C        4.00540741       5.40822162       4.30989186      -0.00314433       0.00013852      -0.00248596
C        5.27462580       5.60684849       3.84158004       0.00185373       0.00201437      -0.00430909
C        6.13421048       4.73941995       5.86964447       0.00120181      -0.00260458       0.00192841
C        6.34537925       5.26869012       4.63061035      -0.00015444      -0.00196201      -0.00154450
O        5.52684757       6.12109924       2.63962525      -0.00054335      -0.00325240       0.00296302
H        2.81089934       4.72684193       5.90942020      -0.00031183       0.00135988      -0.00053067
H        3.16156753       5.66954560       3.70303234       0.00036188       0.00059556      -0.00010175
H        3.61405302       3.91754672       7.96451139      -0.00069504       0.00116232       0.00073153
H        5.16951035       4.52245558       8.46518730      -0.00126267      -0.00029940      -0.00043393
H        6.97983901       4.48101501       6.47440506       0.00018729       0.00035395       0.00061822
H        4.72607379       6.31481192       2.18916034      -0.00075334       0.00140698      -0.00220892
H        7.33432895       5.42818016       4.25705100       0.00100137       0.00066852       0.00128337
H        5.03972419       2.93831714       7.75908996       0.00051214       0.00146667       0.00067859
25
Lattice="30.0 0.0 0.0 0.0 30.0 0.0 0.0 0.0 30.0" Properties=species:S:1:pos:R:3:forces:R:3 dimer_id=2058 label=PP chargeA=0 energyA=-4220.59833568394 chargeB=0 energyB=-9438.64663732427 indexB=9 distance=9.613426196634887 distance_initial=5.156795504123839 energy=-13659.2488017475 pbc="T T T"
C        0.16042344       0.37387163       0.37178197       0.00484792       0.00002949       0.00211379
C        0.01548177      -1.08373518       0.66935524      -0.00206603      -0.00171708       0.00055680
O       -0.19348916       0.69059903      -0.92647423      -0.00205187       0.00527917      -0.00114323
H       -0.49223879       0.94899619       1.00799893      -0.00199251      -0.00012227       0.00150315
H        1.17236400       0.69834254       0.58287344      -0.00004447      -0.00126468       0.00051012
H        0.26060637      -1.28981620       1.69922236       0.00039438       0.00006717      -0.00064267
H        0.35428107       0.22094359      -1.52668288      -0.00072871      -0.00043818      -0.00029764
H        0.67581217      -1.67322125       0.05035361       0.00004673       0.00108968       0.00082694
H       -0.99578953      -1.40794603       0.48540340      -0.00034469       0.00003713      -0.00031521
C        5.13209529       4.41944082       8.18141455       0.00193054      -0.00322169      -0.00098341
C        4.28420555       5.34727480       6.03116924      -0.00018253       0.00007246       0.00082169
C        5.33795042       5.00268524       6.83362177       0.00093876      -0.00104526      -0.00009146
C        4.47792903       5.88074324       4.78241348      -0.00210916       0.00048261      -0.00203245
C        5.74714742       6.07937011       4.31410166       0.00152106       0.00134201      -0.00290575
C        6.60673210       5.21194157       6.34216609       0.00107793      -0.00240370       0.00179550
C        6.81790087       5.74121174       5.10313197      -0.00029788      -0.00168531      -0.00157870
O        5.99936919       6.59362086       3.11214687      -0.00067043      -0.00231950       0.00151032
H        3.28342096       5.19936355       6.38194182      -0.00017144       0.00104012      -0.00058583
H        3.63408915       6.14206722       4.17555396       0.00035147       0.00054542      -0.00004652
H        4.08657464       4.39006834       8.43703301      -0.00066233       0.00105434       0.00065864
H        5.64203197       4.99497720       8.93770892      -0.00119541      -0.00021516      -0.00044695
H        7.45236063       4.95353663       6.94692668       0.00015416       0.00026826       0.00053645
H        5.19859541       6.78733354       2.66168196      -0.00009874       0.00108704      -0.00148820
H        7.80685057       5.90070178       4.72957262       0.00096434       0.00051493       0.00123029
H        5.51224581       3.41083876       8.23161158       0.00038894       0.00152300       0.00049435
25
Lattice="30.0 0.0 0.0 0.0 30.0 0.0 0.0 0.0 30.0" Properties=species:S:1:pos:R:3:forces:R:3 dimer_id=2058 label=PP chargeA=0 energyA=-4220.59833568394 chargeB=0 energyB=-9438.64663732427 indexB=9 distance=10.508018019939922 distance_initial=5.156795504123839 energy=-13659.2475205195 pbc="T T T"
C        0.16042344       0.37387163       0.37178197       0.00336507       0.00050046       0.00120916
C        0.01548177      -1.08373518       0.66935524      -0.00186166      -0.00181412       0.00031867
O       -0.19348916       0.69059903      -0.92647423      -0.00146370       0.00410369      -0.00012916
H       -0.49223879       0.94899619       1.00799893      -0.00157190       0.00000280       0.00131429
H        1.17236400       0.69834254       0.58287344       0.00012017      -0.00087102       0.00031421
H        0.26060637      -1.28981620       1.69922236       0.00015206      -0.00006847      -0.00041237
H        0.35428107       0.22094359      -1.52668288      -0.00089616      -0.00015382      -0.00034157
H        0.67581217      -1.67322125       0.05035361       0.00001696       0.00084597       0.00064781
H       -0.99578953      -1.40794603       0.48540340      -0.00024532       0.00002124      -0.00021546
C        5.64858812       4.93593365       8.69790738       0.00192236      -0.00325612      -0.00095102
C        4.80069838       5.86376763       6.54766207      -0.00028580       0.00029173       0.00097832
C        5.85444325       5.51917807       7.35011460       0.00085549      -0.00086592      -0.00013148
C        4.99442186       6.39723607       5.29890631      -0.00142050       0.00072206      -0.00176858
C        6.26364025       6.59586294       4.83059449       0.00129532       0.00081524      -0.00185999
C        7.12322493       5.72843440       6.85865892       0.00098763      -0.00224569       0.00170154
C        7.33439370       6.25770457       5.61962480      -0.00041466      -0.00146563      -0.00161232
O        6.51586202       7.11011369       3.62863970      -0.00076484      -0.00157020       0.00041097
H        3.79991379       5.71585638       6.89843465      -0.00006907       0.00079440      -0.00062396
H        4.15058198       6.65856005       4.69204679       0.00034286       0.00045829      -0.00004034
H        4.60306747       4.90656117       8.95352584      -0.00063317       0.00096691       0.00060456
H        6.15852480       5.51147003       9.45420175      -0.00114082      -0.00014825      -0.00045832
H        7.96885346       5.47002946       7.46341951       0.00012428       0.00019590       0.00047107
H        5.71508824       7.30382637       3.17817479       0.00035633       0.00077684      -0.00096688
H        8.32334340       6.41719461       5.24606545       0.00093959       0.00038977       0.00118898
H        6.02873864       3.92733159       8.74810441       0.00028948       0.00157395       0.00035185
25
Lattice="30.0 0.0 0.0 0.0 30.0 0.0 0.0 0.0 30.0" Properties=species:S:1:pos:R:3:forces:R:3 dimer_id=2058 label=PP chargeA=0 energyA=-4220.59833568394 chargeB=0 energyB=-9438.64663732427 indexB=9 distance=11.485857435850154 distance_initial=5.156795504123839 energy=-13659.2466651987 pbc="T T T"
C        0.16042344       0.37387163       0.37178197       0.00242816       0.00090870       0.00068495
C        0.01548177      -1.08373518       0.66935524      -0.00174448      -0.00188771       0.00015054
O       -0.19348916       0.69059903      -0.92647423      -0.00107207       0.00323040       0.00046329
H       -0.49223879       0.94899619       1.00799893      -0.00124524       0.00007455       0.00118034
H        1.17236400       0.69834254       0.58287344       0.00018980      -0.00058556       0.00021943
H        0.26060637      -1.28981620       1.69922236      -0.00001965      -0.00013300      -0.00024718
H        0.35428107       0.22094359      -1.52668288      -0.00102636       0.00007224      -0.00035059
H        0.67581217      -1.67322125       0.05035361       0.00000660       0.00066422       0.00049933
H       -0.99578953      -1.40794603       0.48540340      -0.00018126      -0.00000001      -0.00014533
C        6.21314397       5.50048950       9.26246323       0.00191542      -0.00329131      -0.00092722
C        5.36525423       6.42832348       7.11221792      -0.00035925       0.00044343       0.00110545
C        6.41899910       6.08373392       7.91467045       0.00079174      -0.00073397      -0.00013973
C        5.55897771       6.96179192       5.86346216      -0.00094688       0.00090483      -0.00160580
C        6.82819610       7.16041879       5.39515034       0.00114066       0.00040376      -0.00106430
C        7.68778078       6.29299025       7.42321477       0.00092291      -0.00212192       0.00163515
C        7.89894955       6.82226042       6.18418065      -0.00050836      -0.00128921      -0.00164197
O        7.08041787       7.67466954       4.19319555      -0.00082791      -0.00096766      -0.00042558
H        4.36446964       6.28041223       7.46299050       0.00000831       0.00060500      -0.00064932
H        4.71513783       7.22311590       5.25660264       0.00033282       0.00037031      -0.00005563
H        5.16762332       5.47111702       9.51808169      -0.00061125       0.00089507       0.00056119
H        6.72308065       6.07602588      10.01875760      -0.00109693      -0.00009828      -0.00047141
H        8.53340931       6.03458531       8.02797536       0.00009706       0.00013419       0.00041849
H        6.27964409       7.86838222       3.74273064       0.00067681       0.00049614      -0.00059106
H        8.88789925       6.98175046       5.81062130       0.00092106       0.00028687       0.00115606
H        6.59329449       4.49188744       9.31266026       0.00020831       0.00161891       0.00024091
25
Lattice="30.0 0.0 0.0 0.0 30.0 0.0 0.0 0.0 30.0" Properties=species:S:1:pos:R:3:forces:R:3 dimer_id=2058 label=PP chargeA=0 energyA=-4220.59833568394 chargeB=0 energyB=-9438.64663732427 indexB=9 distance=12.554691168619497 distance_initial=5.156795504123839 energy=-13659.2460800619 pbc="T T T"
C        0.16042344       0.37387163       0.37178197       0.00183579       0.00125156       0.00038565
C        0.01548177      -1.08373518       0.66935524      -0.00167843      -0.00194182       0.00003783
O       -0.19348916       0.69059903      -0.92647423      -0.00081819       0.00259656       0.00080606
H       -0.49223879       0.94899619       1.00799893      -0.00100147       0.00011302       0.00108780
H        1.17236400       0.69834254       0.58287344       0.00021553      -0.00038590       0.00018000
H        0.26060637      -1.28981620       1.69922236      -0.00014090      -0.00015755      -0.00012732
H        0.35428107       0.22094359      -1.52668288      -0.00111333       0.00023693      -0.00034515
H        0.67581217      -1.67322125       0.05035361       0.00001082       0.00052806       0.00037410
H       -0.99578953      -1.40794603       0.48540340      -0.00014516      -0.00002191      -0.00009835
C        6.83023542       6.11758094       9.87955467       0.00191037      -0.00332228      -0.00091696
C        5.98234568       7.04541492       7.72930936      -0.00040532       0.00055873       0.00120138
C        7.03609055       6.70082536       8.53176189       0.00074013      -0.00064319      -0.00013175
C        6.17606916       7.57888336       6.48055360      -0.00060935       0.00105386      -0.00149667
C        7.44528755       7.77751023       6.01224178       0.00103691       0.00009023      -0.00047357
C        8.30487223       6.91008169       8.04030621       0.00087644      -0.00202473       0.00158454
C        8.51604100       7.43935186       6.80127209      -0.00058620      -0.00115234      -0.00166508
O        7.69750932       8.29176098       4.81028699      -0.00087188      -0.00049460      -0.00104194
H        4.98156109       6.89750367       8.08008194       0.00006011       0.00046027      -0.00066544
H        5.33222928       7.84020734       5.87369408       0.00032086       0.00029013      -0.00008488
H        5.78471477       6.08820846      10.13517313      -0.00059544       0.00083516       0.00052932
H        7.34017210       6.69311732      10.63584904      -0.00106075      -0.00006088      -0.00047951
H        9.15050076       6.65167675       8.64506680       0.00007503       0.00008193       0.00037582
H        6.89673554       8.48547366       4.35982208       0.00089256       0.00025224      -0.00032363
H        9.50499070       7.59884190       6.42771274       0.00090842       0.00020176       0.00112978
H        7.21038594       5.10897888       9.92975170       0.00014343       0.00165474       0.00015797
25
Lattice="30.0 0.0 0.0 0.0 30.0 0.0 0.0 0.0 30.0" Properties=species:S:1:pos:R:3:forces:R:3 dimer_id=2058 label=PP chargeA=0 energyA=-4220.59833568394 chargeB=0 energyB=-9438.64663732427 indexB=9 distance=13.72298683359498 distance_initial=5.156795504123839 energy=-13659.2456804118 pbc="T T T"
C        0.16042344       0.37387163       0.37178197       0.00146508       0.00153254       0.00023457
C        0.01548177      -1.08373518       0.66935524      -0.00164809      -0.00198922      -0.00003873
O       -0.19348916       0.69059903      -0.92647423      -0.00064659       0.00212606       0.00098392
H       -0.49223879       0.94899619       1.00799893      -0.00081758       0.00012860       0.00102100
H        1.17236400       0.69834254       0.58287344       0.00021235      -0.00024863       0.00016595
H        0.26060637      -1.28981620       1.69922236      -0.00022664      -0.00015669      -0.00004180
H        0.35428107       0.22094359      -1.52668288      -0.00118074       0.00036826      -0.00032761
H        0.67581217      -1.67322125       0.05035361       0.00002215       0.00042889       0.00027229
H       -0.99578953      -1.40794603       0.48540340      -0.00012317      -0.00003974      -0.00006527
C        7.50475123       6.79209676      10.55407049       0.00190596      -0.00335068      -0.00090893
C        6.65686149       7.71993074       8.40382518      -0.00043663       0.00064317       0.00127306
C        7.71060636       7.37534118       9.20627771       0.00069724      -0.00057695      -0.00011746
C        6.85058497       8.25339918       7.15506942      -0.00036848       0.00117381      -0.00142593
C        8.11980336       8.45202605       6.68675760       0.00095823      -0.00015504      -0.00001846
C        8.97938804       7.58459751       8.71482203       0.00084804      -0.00194792       0.00154864
C        9.19055681       8.11386768       7.47578791      -0.00064965      -0.00104498      -0.00168135
O        8.37202513       8.96627680       5.48480281      -0.00090209      -0.00011754      -0.00151423
H        5.65607690       7.57201949       8.75459776       0.00009887       0.00034833      -0.00067613
H        6.00674509       8.51472316       6.54820990       0.00031141       0.00021966      -0.00011505
H        6.45923058       6.76272428      10.80968895      -0.00058240       0.00078761       0.00050414
H        8.01468791       7.36763314      11.31036486      -0.00103093      -0.00003489      -0.00048761
H        9.82501657       7.32619257       9.31958262       0.00005517       0.00003824       0.00034169
H        7.57125135       9.15998948       5.03433790       0.00104689       0.00004691      -0.00013169
H       10.17950651       8.27335772       7.10222856       0.00089915       0.00013260       0.00110902
H        7.88490175       5.78349470      10.60426752       0.00009245       0.00168759       0.00009598
25
Lattice="30.0 0.0 0.0 0.0 30.0 0.0 0.0 0.0 30.0" Properties=species:S:1:pos:R:3:forces:R:3 dimer_id=2058 label=PP chargeA=0 energyA=-4220.59833568394 chargeB=0 energyB=-9438.64663732427 indexB=9 distance=14.999999996450505 distance_initial=5.156795504123839 energy=-13659.2454017458 pbc="T T T"
C        0.16042344       0.37387163       0.37178197       0.00122979       0.00175928       0.00016550
C        0.01548177      -1.08373518       0.66935524      -0.00163746      -0.00202958      -0.00008951
O       -0.19348916       0.69059903      -0.92647423      -0.00053216       0.00177816       0.00106859
H       -0.49223879       0.94899619       1.00799893      -0.00068046       0.00013096       0.00097377
H        1.17236400       0.69834254       0.58287344       0.00019573      -0.00015880       0.00016235
H        0.26060637      -1.28981620       1.69922236      -0.00028797      -0.00014299       0.00002030
H        0.35428107       0.22094359      -1.52668288      -0.00123011       0.00046944      -0.00030739
H        0.67581217      -1.67322125       0.05035361       0.00003680       0.00035683       0.00018914
H       -0.99578953      -1.40794603       0.48540340      -0.00011024      -0.00005357      -0.00004187
C        8.24203513       7.52938065      11.29135438       0.00190582      -0.00337490      -0.00090465
C        7.39414539       8.45721463       9.14110907      -0.00045592       0.00070684       0.00132796
C        8.44789026       8.11262507       9.94356160       0.00066199      -0.00052779      -0.00009866
C        7.58786887       8.99068307       7.89235331      -0.00019430       0.00126964      -0.00137974
C        8.85708726       9.18930994       7.42404149       0.00090134      -0.00034389       0.00032822
C        9.71667194       8.32188140       9.45210592       0.00083207      -0.00188758       0.00152249
C        9.92784071       8.85115157       8.21307180      -0.00070220      -0.00096104      -0.00169289
O        9.10930903       9.70356069       6.22208670      -0.00092242       0.00018000      -0.00187257
H        6.39336080       8.30930338       9.49188165       0.00012715       0.00026229      -0.00068309
H        6.74402899       9.25200705       7.28549379       0.00030325       0.00016125      -0.00014436
H        7.19651448       7.50000817      11.54697284      -0.00057435       0.00074923       0.00048496
H        8.75197181       8.10491703      12.04764875      -0.00100667      -0.00001742      -0.00049471
H       10.56230047       8.06347646      10.05686651       0.00003773       0.00000195       0.00031569
H        8.30853525       9.89727337       5.77162179       0.00115728      -0.00012194       0.00000622
H       10.91679041       9.01064161       7.83951245       0.00089262       0.00007736       0.00109308
H        8.62218565       6.52077859      11.34155141       0.00005268       0.00171627       0.00005116
